54
Cyclohexane chair conformation with 12 water solvent shell
C          1.258     0.726     0.231
C          0.000     1.452    -0.231
C         -1.258     0.726     0.231
C         -1.258    -0.726    -0.231
C          0.000    -1.452     0.231
C          1.258    -0.726    -0.231
H          1.258     0.726     1.321
H          2.179     1.258    -0.154
H          0.000     1.452    -1.321
H          0.000     2.483     0.154
H         -1.258     0.726     1.321
H         -2.179     1.258    -0.154
H         -1.258    -0.726    -1.321
H         -2.179    -1.258     0.154
H          0.000    -1.452     1.321
H          0.000    -2.483    -0.154
H          1.258    -0.726    -1.321
H          2.179    -1.258     0.154
O          4.500     0.000     0.000
H          5.100     0.600     0.400
H          5.100    -0.600    -0.400
O         -4.500     0.000     0.000
H         -5.100     0.600     0.400
H         -5.100    -0.600    -0.400
O          0.000     4.500     0.000
H          0.600     5.100     0.400
H         -0.600     5.100    -0.400
O          0.000    -4.500     0.000
H          0.600    -5.100     0.400
H         -0.600    -5.100    -0.400
O          0.000     0.000     4.500
H          0.600     0.400     5.100
H         -0.600    -0.400     5.100
O          0.000     0.000    -4.500
H          0.600     0.400    -5.100
H         -0.600    -0.400    -5.100
O          3.200     3.200     3.200
H          3.800     3.800     3.600
H          2.600     3.600     3.600
O         -3.200     3.200     3.200
H         -3.800     3.800     3.600
H         -2.600     3.600     3.600
O          3.200    -3.200     3.200
H          3.800    -3.800     3.600
H          2.600    -3.600     3.600
O         -3.200    -3.200     3.200
H         -3.800    -3.800     3.600
H         -2.600    -3.600     3.600
O          3.200     3.200    -3.200
H          3.800     3.800    -3.600
H          2.600     3.600    -3.600
O         -3.200     3.200    -3.200
H         -3.800     3.800    -3.600
H         -2.600     3.600    -3.600
