15
XYZ file generated by Avogadro.
Zn    -5.0338291267    1.8791944986    0.1379672742
O     -1.6364190550    1.8556989870   -0.1856958511
H     -1.8531027710    2.2461495702    0.6979781066
H     -0.7185221959    1.4994242770   -0.0819985867
O     -7.4566627904    3.6597751401   -0.0955754892
H     -7.3273406507    3.0710191581   -0.8807623101
H     -8.4278558664    3.8513479436   -0.0885583518
O     -7.3949192036   -0.0875853489    0.1051960992
H     -7.0474417486    0.0844619815   -0.8060079115
H     -8.0243425615    0.6570939370    0.2765307560
O     -3.6854724178   -0.7342946465    0.2210557156
H     -2.7575085301   -1.0654131020    0.1221720318
H     -3.9969750173   -0.5747698918   -0.7055491512
Cl    -4.5564335229    6.8973910211   -0.0187130829
Cl    -6.0219801303   -3.3700194494   -0.2309905172
