21
Frame 0
C         3.428000     0.280000    24.447001
H         3.964000     0.770000    25.271000
H         2.997000     1.004000    23.745998
H         4.227000    -0.272000    23.942001
C        -0.379000    -1.902001    24.722000
H         0.464000    -2.579999    24.784000
C        -1.675999    -2.432001    24.862999
H        -1.793001    -3.515999    24.865000
C        -2.743001    -1.472001    25.011002
H        -3.729999    -1.914999    24.941999
C        -2.492001    -0.120001    24.993999
H        -3.463001     0.371000    25.021999
C         2.315000    -0.483999    25.228001
O         2.482000    -1.412001    25.945999
O         1.159000     0.025000    24.770000
C        -0.095999    -0.495999    24.806000
C        -1.122999     0.421000    24.993000
C        -0.876000     1.952000    25.060999
O        -1.786001     2.724000    25.228001
O         0.441000     2.419000    25.060999
H         0.810000     1.610000    24.651001
21
Frame 1
C         3.374455     0.270768    24.429598
H         3.857239     0.759533    25.282417
H         2.991989     1.065453    23.742514
H         4.076833    -0.268762    23.868025
C        -0.377226    -1.909823    24.731607
H         0.559697    -2.466075    24.661367
C        -1.645327    -2.433262    24.851580
H        -1.735022    -3.520484    24.758089
C        -2.761955    -1.509304    25.014885
H        -3.805866    -1.768129    24.991516
C        -2.449586    -0.126836    24.996655
H        -3.335452     0.553075    25.009178
C         2.320537    -0.482574    25.193344
O         2.463156    -1.419277    25.958485
O         1.142698     0.034338    24.776642
C        -0.090849    -0.497150    24.798466
C        -1.109343     0.440637    24.987795
C        -0.854490     1.936602    25.102255
O        -1.745615     2.714483    25.236706
O         0.406414     2.442945    25.057068
H         0.757949     1.546039    24.754684
21
Frame 2
C         3.323924     0.276818    24.424486
H         3.798976     0.778916    25.254444
H         2.959675     1.079489    23.800930
H         3.976573    -0.410953    23.778893
C        -0.347369    -1.896253    24.745537
H         0.554109    -2.463248    24.498987
C        -1.630409    -2.431674    24.839630
H        -1.742277    -3.513546    24.686028
C        -2.761590    -1.545882    25.003206
H        -3.886366    -1.708283    25.083508
C        -2.412131    -0.121753    25.005817
H        -3.126245     0.726866    25.040243
C         2.320203    -0.484827    25.148029
O         2.445460    -1.423926    25.967903
O         1.132635     0.035589    24.776253
C        -0.096657    -0.500107    24.808037
C        -1.104648     0.449463    24.972923
C        -0.826206     1.927707    25.143755
O        -1.713214     2.706798    25.246864
O         0.365226     2.456422    25.046597
H         0.711280     1.558785    24.962370
21
Frame 3
C         3.294730     0.278083    24.418320
H         3.841349     0.800129    25.221289
H         2.860103     1.099119    23.832598
H         3.815871    -0.477233    23.811218
C        -0.302722    -1.870863    24.748398
H         0.478790    -2.544355    24.407919
C        -1.631300    -2.433560    24.824085
H        -1.788106    -3.493905    24.668362
C        -2.754686    -1.553428    24.988853
H        -3.794825    -1.782675    25.135643
C        -2.377796    -0.104926    25.019056
H        -3.019922     0.749889    25.121939
C         2.301350    -0.506072    25.113400
O         2.430867    -1.416044    25.964491
O         1.129007     0.031544    24.768656
C        -0.105567    -0.498414    24.833340
C        -1.095521     0.437364    24.957865
C        -0.808487     1.928682    25.178513
O        -1.691258     2.702075    25.259464
O         0.327640     2.464265    25.037048
H         0.735887     1.546348    25.146954
21
Frame 4
C         3.278603     0.282157    24.417915
H         3.940470     0.761888    25.156603
H         2.759829     1.082660    23.822451
H         3.702634    -0.484285    23.848846
C        -0.277748    -1.858642    24.734175
H         0.459437    -2.609446    24.446342
C        -1.635699    -2.427223    24.804852
H        -1.838996    -3.504169    24.692381
C        -2.724578    -1.524642    24.979351
H        -3.713889    -1.958339    25.122852
C        -2.351911    -0.093379    25.034851
H        -3.133166     0.665942    25.237076
C         2.266892    -0.542269    25.096655
O         2.419501    -1.396487    25.947721
O         1.126732     0.023540    24.756504
C        -0.098398    -0.490310    24.864666
C        -1.077478     0.415849    24.954189
C        -0.811427     1.931230    25.200623
O        -1.682966     2.702329    25.275372
O         0.308941     2.460067    25.033115
H         0.759509     1.632789    25.223524
21
Frame 5
C         3.262497     0.291799    24.425085
H         4.041916     0.678460    25.082285
H         2.752167     1.018095    23.801973
H         3.717514    -0.514820    23.769043
C        -0.287740    -1.872568    24.709797
H         0.528973    -2.590134    24.584942
C        -1.631916    -2.407660    24.783201
H        -1.858673    -3.490398    24.732964
C        -2.673047    -1.485493    24.973688
H        -3.658168    -2.048523    25.068623
C        -2.356982    -0.092738    25.056786
H        -3.261931     0.515522    25.319157
C         2.231209    -0.571043    25.086248
O         2.410386    -1.376345    25.927885
O         1.121885     0.010746    24.744339
C        -0.067890    -0.484052    24.888994
C        -1.057673     0.407637    24.970524
C        -0.830672     1.923557    25.206776
O        -1.692827     2.708313    25.295065
O         0.308459     2.457412    25.035061
H         0.827134     1.650841    25.190935
21
Frame 6
C         3.257586     0.276731    24.424171
H         4.107748     0.609043    25.047234
H         2.817335     1.029257    23.750809
H         3.726709    -0.420501    23.717529
C        -0.312345    -1.898670    24.691408
H         0.585991    -2.528117    24.713467
C        -1.616518    -2.379539    24.761230
H        -1.840205    -3.437619    24.757126
C        -2.619100    -1.463289    24.967079
H        -3.560350    -1.919968    25.015306
C        -2.390385    -0.104604    25.086418
H        -3.279204     0.420550    25.325977
C         2.210479    -0.574062    25.067852
O         2.402689    -1.365900    25.916033
O         1.116462    -0.005002    24.735174
C        -0.033426    -0.491927    24.897108
C        -1.049387     0.421748    25.008316
C        -0.854070     1.908471    25.197575
O        -1.721656     2.717163    25.318478
O         0.324978     2.455267    25.042961
H         0.874538     1.617903    25.058306
21
Frame 7
C         3.267239     0.250957    24.410936
H         4.091367     0.553815    25.058764
H         2.916030     1.083856    23.749113
H         3.730740    -0.319588    23.669273
C        -0.321298    -1.911397    24.691341
H         0.539878    -2.540979    24.725191
C        -1.593053    -2.352242    24.741611
H        -1.813755    -3.419645    24.739923
C        -2.567649    -1.451821    24.955805
H        -3.611639    -1.749475    25.005236
C        -2.414954    -0.123627    25.118525
H        -3.310785     0.504226    25.295809
C         2.214591    -0.555048    25.042429
O         2.396070    -1.365798    25.913696
O         1.116076    -0.017965    24.725994
C        -0.024691    -0.515382    24.889412
C        -1.062484     0.442043    25.060274
C        -0.873048     1.905418    25.178951
O        -1.763625     2.721926    25.344469
O         0.354484     2.444685    25.055065
H         0.820686     1.625847    24.862019
21
Frame 8
C         3.290590     0.236100    24.385550
H         4.030513     0.506328    25.135880
H         2.989104     1.124584    23.857870
H         3.774184    -0.355079    23.557316
C        -0.307195    -1.902921    24.707832
H         0.470119    -2.666662    24.610348
C        -1.568415    -2.341347    24.727036
H        -1.794450    -3.413303    24.670944
C        -2.553270    -1.443691    24.944008
H        -3.653979    -1.658936    25.008867
C        -2.416015    -0.119536    25.151077
H        -3.287344     0.597705    25.244864
C         2.241141    -0.534439    25.024950
O         2.390576    -1.369209    25.912777
O         1.121627    -0.024059    24.709953
C        -0.051720    -0.538466    24.875803
C        -1.093338     0.444518    25.112402
C        -0.886760     1.929733    25.161266
O        -1.809068     2.717143    25.370867
O         0.381954     2.430170    25.066357
H         0.756990     1.571579    24.682644
21
Frame 9
C         3.337568     0.219785    24.347683
H         3.979735     0.454173    25.227392
H         2.985128     1.211998    23.998005
H         3.775785    -0.395782    23.543207
C        -0.277803    -1.897633    24.726440
H         0.423209    -2.721796    24.456272
C        -1.551502    -2.347806    24.719475
H        -1.778011    -3.396585    24.559311
C        -2.588582    -1.434495    24.937723
H        -3.584778    -1.699543    24.978306
C        -2.397780    -0.084226    25.180649
H        -3.206778     0.589830    25.218044
C         2.277351    -0.527644    25.026369
O         2.387963    -1.370153    25.905695
O         1.127965    -0.023196    24.681808
C        -0.095460    -0.541177    24.868858
C        -1.125443     0.426654    25.151371
C        -0.898380     1.972376    25.153728
O        -1.850095     2.704919    25.395821
O         0.401974     2.405745    25.069328
H         0.667817     1.581104    24.637581
21
Frame 10
C         3.394299     0.211513    24.321138
H         3.977748     0.368644    25.225609
H         2.979425     1.239066    24.112713
H         3.783457    -0.417957    23.562622
C        -0.253911    -1.909184    24.732006
H         0.457781    -2.606680    24.367636
C        -1.550407    -2.358074    24.718019
H        -1.763563    -3.402190    24.441345
C        -2.633412    -1.423528    24.939096
H        -3.653343    -1.863983    24.905724
C        -2.372799    -0.050824    25.203094
H        -3.238542     0.624841    25.264877
C         2.308810    -0.531552    25.039433
O         2.391295    -1.369562    25.893698
O         1.130208    -0.019403    24.641531
C        -0.124953    -0.520573    24.875154
C        -1.139605     0.413248    25.170891
C        -0.910127     2.002906    25.159519
O        -1.882365     2.693765    25.418915
O         0.404664     2.387003    25.067482
H         0.648245     1.513490    24.681263
21
Frame 11
C         3.440825     0.212204    24.323919
H         4.109511     0.271032    25.167545
H         3.037188     1.175469    24.131773
H         3.841238    -0.445068    23.495277
C        -0.253584    -1.914492    24.723438
H         0.631608    -2.473054    24.355103
C        -1.567495    -2.366908    24.717068
H        -1.752641    -3.394418    24.372578
C        -2.677562    -1.429162    24.945160
H        -3.687873    -1.936331    24.831524
C        -2.378750    -0.035968    25.220238
H        -3.251984     0.660570    25.363312
C         2.326186    -0.531042    25.045202
O         2.402298    -1.372778    25.883598
O         1.129021    -0.016472    24.594891
C        -0.122056    -0.493972    24.891279
C        -1.126363     0.429270    25.171947
C        -0.923169     1.997227    25.177773
O        -1.903524     2.690410    25.440138
O         0.389111     2.375817    25.061846
H         0.689473     1.436474    24.810997
21
Frame 12
C         3.487355     0.192447    24.344322
H         4.335696     0.206814    25.088772
H         3.119661     1.196355    24.044487
H         3.847722    -0.371060    23.467371
C        -0.261583    -1.895397    24.704796
H         0.701520    -2.391329    24.425428
C        -1.598389    -2.371771    24.711216
H        -1.762862    -3.385613    24.377134
C        -2.709348    -1.453645    24.950724
H        -3.656766    -1.839039    24.817286
C        -2.421322    -0.042863    25.236046
H        -3.194001     0.648102    25.453651
C         2.328875    -0.516617    25.033566
O         2.420167    -1.380923    25.878605
O         1.130731    -0.016265    24.550453
C        -0.091162    -0.477700    24.907288
C        -1.097782     0.470087    25.160965
C        -0.937169     1.960185    25.206779
O        -1.910849     2.693631    25.458307
O         0.359085     2.366791    25.054180
H         0.728609     1.477415    24.998909
21
Frame 13
C         3.540487     0.169626    24.373188
H         4.479860     0.182584    24.950857
H         3.254552     1.191781    23.976723
H         3.796543    -0.287993    23.449633
C        -0.275021    -1.849174    24.687309
H         0.576107    -2.434926    24.503939
C        -1.631572    -2.368722    24.699471
H        -1.807671    -3.423858    24.435913
C        -2.711363    -1.472030    24.956272
H        -3.794293    -1.753953    24.868969
C        -2.458909    -0.071599    25.249550
H        -3.253546     0.660672    25.509537
C         2.326994    -0.497036    25.013351
O         2.441260    -1.386974    25.873997
O         1.142741    -0.018220    24.514353
C        -0.048950    -0.469670    24.912487
C        -1.081033     0.501468    25.147408
C        -0.949676     1.921086    25.243635
O        -1.902406     2.695584    25.471966
O         0.314535     2.368814    25.051783
H         0.779055     1.480689    25.123663
21
Frame 14
C         3.591872     0.162264    24.392193
H         4.553375     0.153536    24.867073
H         3.410443     1.121177    24.015087
H         3.724967    -0.307860    23.382389
C        -0.312269    -1.795313    24.679575
H         0.461792    -2.589536    24.508371
C        -1.656299    -2.359774    24.684822
H        -1.861079    -3.437119    24.528427
C        -2.719812    -1.475899    24.963362
H        -3.819087    -1.721914    24.983444
C        -2.471406    -0.098062    25.260132
H        -3.340399     0.588062    25.492743
C         2.336053    -0.489361    25.001465
O         2.459859    -1.382625    25.861866
O         1.168695    -0.019860    24.488522
C        -0.014796    -0.455825    24.901085
C        -1.093011     0.491142    25.139141
C        -0.958238     1.906196    25.282852
O        -1.881404     2.689418    25.481739
O         0.264872     2.372446    25.057850
H         0.754034     1.550532    25.131321
21
Frame 15
C         3.637107     0.149357    24.383678
H         4.620613     0.067064    24.911140
H         3.495684     1.200842    24.099556
H         3.649497    -0.358248    23.410971
C        -0.360918    -1.774313    24.674368
H         0.340546    -2.590923    24.474943
C        -1.675167    -2.339740    24.676868
H        -1.886742    -3.401957    24.601776
C        -2.739956    -1.465237    24.976549
H        -3.709946    -1.779218    25.108780
C        -2.463727    -0.115232    25.263090
H        -3.348222     0.449021    25.434454
C         2.366465    -0.495799    25.003500
O         2.472486    -1.367760    25.841347
O         1.207767    -0.018547    24.472637
C        -0.006137    -0.431499    24.873857
C        -1.125987     0.442274    25.139761
C        -0.962007     1.912953    25.317318
O        -1.857216     2.676748    25.490742
O         0.213581     2.384766    25.071661
H         0.718629     1.550105    25.030937
21
Frame 16
C         3.675942     0.138659    24.364031
H         4.583835    -0.076761    24.976078
H         3.533554     1.271672    24.229485
H         3.631924    -0.412915    23.452381
C        -0.410006    -1.782308    24.664303
H         0.315005    -2.470484    24.415579
C        -1.697028    -2.304149    24.684010
H        -1.880682    -3.383436    24.610973
C        -2.743099    -1.448777    24.998104
H        -3.750083    -1.927235    25.199320
C        -2.447112    -0.139089    25.253220
H        -3.360944     0.443207    25.432987
C         2.416710    -0.501440    25.007252
O         2.479884    -1.351471    25.820913
O         1.254246    -0.010798    24.467129
C        -0.030375    -0.413840    24.834711
C        -1.156259     0.391777    25.147633
C        -0.963721     1.915965    25.341640
O        -1.841648     2.665596    25.502914
O         0.172745     2.400858    25.089207
H         0.646596     1.541867    24.863571
21
Frame 17
C         3.702927     0.134131    24.353888
H         4.484195    -0.229235    25.005680
H         3.572336     1.184365    24.367779
H         3.693275    -0.446866    23.392853
C        -0.445733    -1.787686    24.643545
H         0.436003    -2.421746    24.332792
C        -1.723111    -2.270629    24.705069
H        -1.865687    -3.349919    24.564575
C        -2.750120    -1.453488    25.030216
H        -3.725772    -1.955082    25.196285
C        -2.448099    -0.159292    25.239243
H        -3.295875     0.523118    25.491112
C         2.473349    -0.490997    24.997444
O         2.485588    -1.343434    25.809624
O         1.296978     0.004564    24.471828
C        -0.075533    -0.421491    24.789141
C        -1.164913     0.374264    25.156403
C        -0.968678     1.896286    25.355062
O        -1.842198     2.661042    25.521149
O         0.152348     2.412245    25.104309
H         0.520247     1.626796    24.701326
21
Frame 18
C         3.718439     0.103752    24.348364
H         4.454655    -0.345578    25.032408
H         3.614932     1.187876    24.455374
H         3.797758    -0.347066    23.347006
C        -0.440664    -1.788571    24.603331
H         0.422428    -2.374332    24.306896
C        -1.744947    -2.258584    24.730890
H        -1.880758    -3.301394    24.505714
C        -2.764864    -1.477144    25.067329
H        -3.707218    -1.864178    25.138481
C        -2.468531    -0.157034    25.235004
H        -3.176935     0.572009    25.557869
C         2.516242    -0.467360    24.974251
O         2.493649    -1.344404    25.807486
O         1.322079     0.024063    24.483177
C        -0.111542    -0.447841    24.744055
C        -1.154237     0.391097    25.157467
C        -0.979879     1.863050    25.361307
O        -1.858160     2.659370    25.546244
O         0.146562     2.424273    25.115192
H         0.471082     1.657372    24.563463
21
Frame 19
C         3.733835     0.064299    24.352247
H         4.492959    -0.392194    25.011311
H         3.686573     1.195575    24.489540
H         3.899058    -0.170848    23.301727
C        -0.417304    -1.783249    24.552887
H         0.354790    -2.416682    24.283882
C        -1.749837    -2.271860    24.749645
H        -1.944480    -3.310103    24.476374
C        -2.779531    -1.491497    25.100567
H        -3.873701    -1.817431    25.116989
C        -2.480121    -0.133822    25.247322
H        -3.208811     0.602638    25.609093
C         2.527954    -0.453038    24.953737
O         2.506546    -1.346185    25.805950
O         1.319818     0.043960    24.494715
C        -0.108314    -0.466280    24.706881
C        -1.141822     0.415667    25.143940
C        -0.994565     1.845442    25.364933
O        -1.883795     2.651630    25.577225
O         0.152951     2.426297    25.115829
H         0.484705     1.722357    24.551449
21
Frame 20
C         3.758221     0.044238    24.362141
H         4.575577    -0.390949    24.931490
H         3.780379     1.081428    24.508398
H         3.948402    -0.030670    23.257818
C        -0.403888    -1.782911    24.504551
H         0.376439    -2.558057    24.204836
C        -1.738160    -2.306161    24.753141
H        -2.008042    -3.345304    24.509865
C        -2.816479    -1.486392    25.126709
H        -3.880265    -1.783152    25.159206
C        -2.479541    -0.097201    25.277891
H        -3.328507     0.568390    25.595802
C         2.503466    -0.465453    24.948408
O         2.523594    -1.342366    25.798159
O         1.293634     0.061785    24.500778
C        -0.063224    -0.455203    24.683657
C        -1.138763     0.426066    25.115412
C        -1.005919     1.861167    25.366390
O        -1.913867     2.632847    25.612762
O         0.162779     2.424387    25.111732
H         0.590665     1.707773    24.604826
21
Frame 21
C         3.791321     0.032031    24.361494
H         4.683892    -0.401964    24.843596
H         3.858137     1.090078    24.585468
H         3.901636     0.029691    23.288979
C        -0.388365    -1.810551    24.458380
H         0.328753    -2.550006    24.144966
C        -1.728313    -2.342963    24.744301
H        -2.004709    -3.383605    24.592180
C        -2.843194    -1.458449    25.143715
H        -3.814971    -1.800640    25.267105
C        -2.483718    -0.068893    25.316044
H        -3.365684     0.515607    25.533979
C         2.456582    -0.497005    24.952221
O         2.540137    -1.336699    25.786932
O         1.259698     0.077821    24.499786
C        -0.009966    -0.421152    24.675850
C        -1.140065     0.425641    25.080393
C        -1.009448     1.899117    25.361492
O        -1.946223     2.606550    25.652048
O         0.175617     2.421203    25.103848
H         0.706499     1.639919    24.740536
21
Frame 22
C         3.822391     0.033654    24.363348
H         4.740530    -0.451477    24.751818
H         3.898727     1.126955    24.692215
H         3.788335     0.016406    23.276260
C        -0.377965    -1.839669    24.423704
H         0.344199    -2.505679    24.077223
C        -1.730938    -2.359965    24.732151
H        -1.940296    -3.444436    24.670116
C        -2.823987    -1.423609    25.153847
H        -3.866291    -1.866174    25.405256
C        -2.490687    -0.069573    25.340897
H        -3.346796     0.586887    25.530949
C         2.414642    -0.525050    24.946609
O         2.549368    -1.338696    25.781412
O         1.235923     0.093219    24.494400
C         0.008553    -0.396571    24.677593
C        -1.137638     0.431550    25.052549
C        -1.007292     1.932145    25.345818
O        -1.978145     2.580842    25.693769
O         0.195187     2.418461    25.092966
H         0.717936     1.616048    24.960022
21
Frame 23
C         3.832852     0.053377    24.370888
H         4.715717    -0.540073    24.658577
H         3.909735     1.038198    24.751560
H         3.673828    -0.011926    23.253555
C        -0.376766    -1.842892    24.405613
H         0.460653    -2.528114    24.009979
C        -1.736939    -2.354357    24.722223
H        -1.873207    -3.453262    24.702646
C        -2.787316    -1.416638    25.167591
H        -3.753517    -1.813605    25.468132
C        -2.489653    -0.080788    25.342579
H        -3.276701     0.682131    25.612755
C         2.402975    -0.534925    24.921619
O         2.545679    -1.352472    25.785845
O         1.229650     0.105363    24.488708
C        -0.024981    -0.405166    24.679174
C        -1.133175     0.449700    25.042271
C        -1.007457     1.942882    25.320602
O        -2.002299     2.561234    25.734556
O         0.213909     2.428723    25.087927
H         0.694872     1.542439    25.121296
21
Frame 24
C         3.808487     0.061786    24.368118
H         4.635056    -0.640986    24.584686
H         3.931896     1.049134    24.807051
H         3.613986     0.017275    23.319857
C        -0.372138    -1.831393    24.396675
H         0.430998    -2.461786    24.055340
C        -1.729445    -2.331889    24.714954
H        -1.867843    -3.402512    24.673521
C        -2.734339    -1.434617    25.184048
H        -3.664603    -1.739409    25.488705
C        -2.468922    -0.077114    25.326012
H        -3.192618     0.618978    25.724230
C         2.428260    -0.531313    24.888533
O         2.527421    -1.371722    25.793022
O         1.234248     0.108556    24.485415
C        -0.089309    -0.436978    24.673044
C        -1.136413     0.468235    25.050013
C        -1.017005     1.936989    25.293812
O        -2.008710     2.548495    25.769537
O         0.229536     2.443018    25.092648
H         0.620172     1.556171    25.154949
21
Frame 25
C         3.758953     0.059668    24.367418
H         4.524876    -0.706882    24.538671
H         3.962888     1.086695    24.834019
H         3.591917     0.127732    23.301012
C        -0.385833    -1.805902    24.402925
H         0.399410    -2.432587    24.120331
C        -1.698899    -2.301440    24.706202
H        -1.931555    -3.371110    24.600452
C        -2.669129    -1.452088    25.198997
H        -3.732519    -1.772985    25.521416
C        -2.422271    -0.069950    25.303667
H        -3.214970     0.491434    25.823086
C         2.469447    -0.530074    24.870842
O         2.498726    -1.385820    25.790205
O         1.237940     0.096977    24.484060
C        -0.140958    -0.460069    24.657705
C        -1.152318     0.474088    25.065687
C        -1.033461     1.931259    25.275610
O        -1.993172     2.540035    25.794758
O         0.230686     2.462110    25.107344
H         0.605683     1.553689    25.051849
21
Frame 26
C         3.702238     0.065074    24.363869
H         4.439038    -0.728221    24.514551
H         3.967195     0.988857    24.813313
H         3.587909     0.275070    23.249676
C        -0.416713    -1.777010    24.423073
H         0.436046    -2.477424    24.129505
C        -1.658156    -2.281477    24.692844
H        -1.977165    -3.322916    24.526375
C        -2.627680    -1.460412    25.216297
H        -3.610969    -1.827400    25.482342
C        -2.377608    -0.078363    25.296974
H        -3.237376     0.415538    25.818089
C         2.488830    -0.539930    24.882223
O         2.467700    -1.390424    25.771431
O         1.235275     0.070256    24.482208
C        -0.150394    -0.448148    24.639547
C        -1.169469     0.467885    25.074516
C        -1.045566     1.934416    25.272732
O        -1.961646     2.534284    25.810411
O         0.215179     2.475778    25.127438
H         0.643872     1.588719    24.861801
21
Frame 27
C         3.650093     0.068224    24.336718
H         4.404979    -0.710733    24.483891
H         3.966763     0.946216    24.883472
H         3.575727     0.378185    23.318092
C        -0.424941    -1.763928    24.441296
H         0.346053    -2.419209    24.135073
C        -1.632013    -2.275519    24.678928
H        -1.925533    -3.285434    24.478878
C        -2.592010    -1.457653    25.224705
H        -3.496091    -1.914210    25.440620
C        -2.362401    -0.109410    25.316914
H        -3.182371     0.446009    25.696051
C         2.458768    -0.551386    24.912621
O         2.440948    -1.392634    25.744066
O         1.230312     0.035223    24.476650
C        -0.120964    -0.403366    24.628773
C        -1.169302     0.461520    25.066872
C        -1.041834     1.939757    25.283966
O        -1.925199     2.534289    25.821182
O         0.190016     2.475173    25.145069
H         0.646024     1.759720    24.689159
21
Frame 28
C         3.612299     0.070191    24.314413
H         4.405960    -0.673285    24.410475
H         3.931631     0.924404    25.003302
H         3.504828     0.451230    23.310411
C        -0.409205    -1.745682    24.453747
H         0.318996    -2.396793    24.089996
C        -1.624005    -2.274749    24.669956
H        -1.807888    -3.341634    24.458826
C        -2.555561    -1.460638    25.219414
H        -3.544903    -1.998293    25.445061
C        -2.366273    -0.147777    25.350288
H        -3.182108     0.568613    25.594200
C         2.383526    -0.548487    24.938007
O         2.419303    -1.404755    25.721996
O         1.228763     0.003712    24.464336
C        -0.075846    -0.356584    24.631359
C        -1.145279     0.464943    25.045397
C        -1.020296     1.934910    25.302429
O        -1.892545     2.543271    25.832466
O         0.158755     2.476597    25.158834
H         0.650331     1.861399    24.553278
21
Frame 29
C         3.583497     0.081327    24.311138
H         4.411537    -0.646391    24.293102
H         3.834429     0.820631    25.033653
H         3.386035     0.501208    23.263561
C        -0.373404    -1.713419    24.455290
H         0.410575    -2.429776    24.027597
C        -1.616247    -2.285554    24.665401
H        -1.698196    -3.375688    24.478577
C        -2.555833    -1.492960    25.211733
H        -3.497331    -1.930573    25.427340
C        -2.374127    -0.156410    25.380413
H        -3.195698     0.568431    25.574465
C         2.299514    -0.529525    24.946177
O         2.397946    -1.431882    25.711853
O         1.228638    -0.010984    24.442396
C        -0.038030    -0.338695    24.646267
C        -1.107438     0.477206    25.023203
C        -0.991485     1.917948    25.324190
O        -1.865964     2.559369    25.846098
O         0.135413     2.482710    25.162575
H         0.592288     1.915732    24.538475
21
Frame 30
C         3.544178     0.089863    24.303318
H         4.371968    -0.628235    24.171610
H         3.772075     0.816051    25.069057
H         3.275382     0.509356    23.356102
C        -0.316284    -1.690798    24.438595
H         0.434206    -2.337246    24.067839
C        -1.589756    -2.305818    24.665033
H        -1.663077    -3.360288    24.512360
C        -2.579296    -1.531734    25.203646
H        -3.538311    -1.874800    25.425121
C        -2.367921    -0.135832    25.391581
H        -3.218908     0.444141    25.669655
C         2.251083    -0.510299    24.945599
O         2.370033    -1.466601    25.708214
O         1.221422    -0.001822    24.409475
C        -0.018001    -0.355048    24.666584
C        -1.074765     0.489729    25.015919
C        -0.968966     1.901401    25.351036
O        -1.843312     2.575280    25.860256
O         0.124570     2.498544    25.158905
H         0.539183     1.857221    24.570513
21
Frame 31
C         3.491976     0.092989    24.306404
H         4.282460    -0.624344    24.082224
H         3.772009     0.881812    25.076494
H         3.163782     0.573047    23.401791
C        -0.271189    -1.682653    24.419069
H         0.536708    -2.279444    24.100700
C        -1.542161    -2.321007    24.669460
H        -1.697767    -3.404014    24.515173
C        -2.607441    -1.549165    25.194845
H        -3.676131    -1.931179    25.448217
C        -2.343843    -0.121040    25.380661
H        -3.255482     0.385175    25.844376
C         2.257303    -0.507565    24.948360
O         2.332579    -1.496356    25.701921
O         1.201918     0.028993    24.370014
C        -0.014346    -0.386422    24.682240
C        -1.060703     0.493334    25.033112
C        -0.957797     1.901490    25.384781
O        -1.823747     2.584388    25.873688
O         0.129292     2.517293    25.145859
H         0.513284     1.741595    24.645142
21
Frame 32
C         3.435820     0.107163    24.324501
H         4.182384    -0.647075    24.030619
H         3.800372     0.872674    24.977129
H         3.078244     0.667041    23.390324
C        -0.244253    -1.699803    24.405424
H         0.664415    -2.307215    24.064278
C        -1.495469    -2.333837    24.676249
H        -1.707511    -3.411009    24.501083
C        -2.639172    -1.546979    25.186415
H        -3.592300    -1.982546    25.429710
C        -2.329609    -0.127280    25.366932
H        -3.124287     0.394579    25.927940
C         2.295146    -0.521204    24.953671
O         2.290600    -1.514540    25.689852
O         1.176316     0.070873    24.335918
C        -0.023835    -0.405462    24.685165
C        -1.064317     0.482709    25.074060
C        -0.950794     1.921795    25.421196
O        -1.810679     2.587269    25.888580
O         0.150142     2.526727    25.121082
H         0.493934     1.695131    24.792917
21
Frame 33
C         3.387609     0.128789    24.327988
H         4.076064    -0.658400    24.011986
H         3.878579     0.878409    24.933865
H         3.066379     0.680362    23.465765
C        -0.218070    -1.749296    24.394014
H         0.588818    -2.306507    24.009266
C        -1.474431    -2.340436    24.684521
H        -1.636822    -3.376513    24.492731
C        -2.632008    -1.532633    25.168419
H        -3.524625    -2.046397    25.424198
C        -2.327020    -0.155225    25.362558
H        -2.971182     0.488466    25.902922
C         2.316365    -0.534005    24.949459
O         2.254015    -1.522486    25.675238
O         1.158007     0.109419    24.321135
C        -0.042470    -0.399828    24.672049
C        -1.076148     0.458774    25.130272
C        -0.936880     1.949161    25.451424
O        -1.808529     2.590715    25.908480
O         0.177785     2.531221    25.094322
H         0.556272     1.627552    24.887869
21
Frame 34
C         3.369095     0.149144    24.327843
H         3.996155    -0.660415    23.994484
H         3.949039     0.870387    24.973059
H         3.054345     0.702403    23.463049
C        -0.214970    -1.797738    24.389498
H         0.534588    -2.391186    23.901981
C        -1.476223    -2.333651    24.691910
H        -1.553915    -3.418972    24.494019
C        -2.581625    -1.527002    25.142899
H        -3.555522    -2.071826    25.429073
C        -2.323072    -0.184865    25.370594
H        -3.009319     0.582200    25.838734
C         2.287023    -0.530915    24.927881
O         2.229570    -1.522741    25.660408
O         1.153797     0.135654    24.332787
C        -0.062044    -0.383077    24.644806
C        -1.084173     0.429619    25.188705
C        -0.914695     1.965062    25.470612
O        -1.816344     2.601016    25.934107
O         0.211160     2.524835    25.068781
H         0.639150     1.661339    24.915966
21
Frame 35
C         3.381966     0.172130    24.329321
H         3.980246    -0.674307    23.959139
H         3.934093     0.776424    25.022480
H         3.048229     0.751777    23.395550
C        -0.236967    -1.823273    24.382881
H         0.528330    -2.497253    23.844206
C        -1.482263    -2.335756    24.692156
H        -1.541994    -3.425021    24.526262
C        -2.528589    -1.544659    25.125692
H        -3.475041    -1.955211    25.355740
C        -2.323270    -0.190294    25.394964
H        -3.141596     0.473329    25.710583
C         2.215692    -0.513811    24.896231
O         2.216116    -1.513717    25.643032
O         1.157200     0.148704    24.365637
C        -0.074668    -0.377097    24.612656
C        -1.078863     0.409604    25.236885
C        -0.895486     1.959071    25.482695
O        -1.825109     2.617465    25.961485
O         0.245069     2.517128    25.048468
H         0.741996     1.700322    24.853785
21
Frame 36
C         3.401326     0.187958    24.311878
H         3.999443    -0.652406    23.939493
H         3.912023     0.710213    25.130804
H         3.121119     0.766558    23.449575
C        -0.266242    -1.826708    24.361851
H         0.449802    -2.473316    23.949482
C        -1.480727    -2.358341    24.685425
H        -1.630113    -3.399980    24.562412
C        -2.477834    -1.558580    25.119562
H        -3.478436    -1.887331    25.255262
C        -2.326481    -0.188777    25.422075
H        -3.284507     0.294272    25.619003
C         2.147359    -0.496655    24.869167
O         2.206154    -1.491840    25.618885
O         1.152737     0.153728    24.406729
C        -0.078478    -0.390811    24.589340
C        -1.060798     0.409435    25.267076
C        -0.890317     1.937820    25.495207
O        -1.823628     2.631564    25.984463
O         0.276310     2.511614    25.034170
H         0.810670     1.712218    24.735104
21
Frame 37
C         3.417279     0.186868    24.299915
H         4.048286    -0.610676    23.934975
H         3.878455     0.673538    25.207378
H         3.213851     0.864666    23.489325
C        -0.305965    -1.803691    24.339941
H         0.482516    -2.468431    24.039299
C        -1.475201    -2.391133    24.676109
H        -1.762085    -3.460593    24.552185
C        -2.446024    -1.555166    25.122547
H        -3.523934    -1.938715    25.172787
C        -2.329133    -0.202634    25.439297
H        -3.344178     0.231261    25.641171
C         2.126051    -0.488133    24.851446
O         2.193041    -1.458397    25.588097
O         1.128829     0.155344    24.443840
C        -0.077758    -0.412974    24.587002
C        -1.042354     0.424043    25.276161
C        -0.894887     1.919861    25.509987
O        -1.805799     2.635247    25.999548
O         0.301387     2.503133    25.025156
H         0.763638     1.755196    24.635796
21
Frame 38
C         3.427772     0.179706    24.305132
H         4.126447    -0.591645    23.925743
H         3.823714     0.630447    25.182423
H         3.280103     1.006643    23.514517
C        -0.333338    -1.778500    24.322918
H         0.535079    -2.447054    24.036482
C        -1.483579    -2.430146    24.664356
H        -1.799679    -3.480394    24.505711
C        -2.456048    -1.553335    25.129265
H        -3.402903    -2.002196    25.144255
C        -2.328260    -0.223341    25.446730
H        -3.233581     0.293440    25.756786
C         2.159376    -0.482433    24.835474
O         2.177635    -1.422660    25.557358
O         1.090305     0.153597    24.469288
C        -0.083008    -0.421557    24.611719
C        -1.039391     0.434990    25.264399
C        -0.891294     1.918622    25.521427
O        -1.774175     2.626786    26.008204
O         0.306917     2.498639    25.025810
H         0.691155     1.696731    24.554920
21
Frame 39
C         3.436394     0.177074    24.302309
H         4.168783    -0.555062    23.931915
H         3.830735     0.635162    25.209391
H         3.310789     1.016139    23.648932
C        -0.331438    -1.773169    24.311808
H         0.459632    -2.332976    23.949409
C        -1.510401    -2.454062    24.648556
H        -1.711841    -3.484082    24.436737
C        -2.482345    -1.568434    25.132622
H        -3.403895    -2.088525    25.226736
C        -2.311380    -0.231245    25.450943
H        -3.085353     0.414702    25.910957
C         2.216303    -0.469091    24.813345
O         2.167951    -1.395812    25.534573
O         1.055519     0.149052    24.479418
C        -0.103278    -0.409033    24.658512
C        -1.058440     0.429754    25.236958
C        -0.867362     1.930822    25.523378
O        -1.736255     2.610958    26.014973
O         0.293710     2.490498    25.031570
H         0.576530     1.662720    24.582680
21
Frame 40
C         3.456997     0.177941    24.309198
H         4.178783    -0.521026    23.928240
H         3.872186     0.636910    25.243248
H         3.267047     1.036721    23.711931
C        -0.329783    -1.770968    24.314192
H         0.463409    -2.289059    23.759174
C        -1.536281    -2.448986    24.623306
H        -1.608598    -3.543563    24.361702
C        -2.523403    -1.608262    25.138393
H        -3.514888    -2.123895    25.397167
C        -2.284303    -0.216346    25.460737
H        -2.976847     0.451999    26.011497
C         2.254269    -0.448027    24.786724
O         2.173002    -1.382158    25.521889
O         1.041538     0.145496    24.473536
C        -0.133803    -0.392673    24.709721
C        -1.089642     0.417500    25.204506
C        -0.831869     1.938900    25.515434
O        -1.697330     2.594979    26.023672
O         0.265795     2.484487    25.042168
H         0.501225     1.612588    24.665501
21
Frame 41
C         3.489359     0.193663    24.332588
H         4.195118    -0.530229    23.874796
H         3.912929     0.594738    25.221043
H         3.187919     1.081710    23.669624
C        -0.333874    -1.765099    24.318111
H         0.458139    -2.258308    23.661268
C        -1.548855    -2.435961    24.583170
H        -1.577742    -3.500063    24.325781
C        -2.586901    -1.656733    25.163277
H        -3.504086    -2.040024    25.537355
C        -2.266204    -0.201378    25.476152
H        -2.959795     0.388665    26.036301
C         2.252094    -0.433123    24.766874
O         2.196448    -1.377547    25.515249
O         1.051253     0.148143    24.453211
C        -0.158091    -0.393806    24.743660
C        -1.113667     0.419351    25.179214
C        -0.809658     1.927668    25.503942
O        -1.658673     2.583093    26.035576
O         0.234789     2.482543    25.054146
H         0.512893     1.562865    24.744209
21
Frame 42
C         3.519845     0.226783    24.342546
H         4.156866    -0.513999    23.815775
H         4.003485     0.585246    25.262524
H         3.178304     0.999346    23.675426
C        -0.344558    -1.753707    24.314253
H         0.392234    -2.208393    23.763260
C        -1.557915    -2.417097    24.538719
H        -1.640716    -3.444605    24.294130
C        -2.630343    -1.673007    25.206322
H        -3.561313    -2.022679    25.626259
C        -2.276340    -0.219955    25.491211
H        -3.052516     0.345029    26.042717
C         2.223619    -0.435207    24.762199
O         2.234144    -1.376853    25.510513
O         1.072859     0.157437    24.423054
C        -0.158818    -0.413039    24.745329
C        -1.118515     0.440478    25.168072
C        -0.818925     1.897853    25.495893
O        -1.621964     2.574928    26.050983
O         0.214085     2.477739    25.061630
H         0.580160     1.624398    24.809925
21
Frame 43
C         3.541802     0.256344    24.350929
H         4.084597    -0.468726    23.774837
H         4.089433     0.603070    25.275654
H         3.217791     0.985418    23.653515
C        -0.374999    -1.732149    24.314167
H         0.470401    -2.277384    23.863380
C        -1.583827    -2.387097    24.507313
H        -1.747620    -3.469372    24.226940
C        -2.637675    -1.654539    25.256405
H        -3.642287    -2.093103    25.618534
C        -2.324541    -0.263865    25.510181
H        -3.123004     0.312448    26.005573
C         2.203425    -0.447037    24.768927
O         2.277162    -1.380150    25.508032
O         1.091863     0.166210    24.389603
C        -0.131555    -0.426791    24.713432
C        -1.110125     0.456674    25.171507
C        -0.853243     1.864619    25.491531
O        -1.593065     2.568486    26.071541
O         0.205055     2.476519    25.067108
H         0.703461     1.651030    24.792078
21
Frame 44
C         3.544865     0.278217    24.364651
H         4.068359    -0.462198    23.735950
H         4.126420     0.621689    25.195139
H         3.281102     1.102473    23.612476
C        -0.395834    -1.722307    24.309904
H         0.479263    -2.343502    23.954802
C        -1.637976    -2.357633    24.496590
H        -1.820922    -3.391719    24.179108
C        -2.628515    -1.634319    25.297157
H        -3.555179    -2.119768    25.497866
C        -2.385943    -0.299249    25.532753
H        -3.167069     0.285333    25.962746
C         2.218833    -0.452294    24.778046
O         2.317243    -1.390307    25.510189
O         1.104286     0.166531    24.357328
C        -0.093570    -0.411470    24.661257
C        -1.106780     0.436087    25.186216
C        -0.887923     1.845477    25.485346
O        -1.580141     2.562133    26.100073
O         0.209460     2.469332    25.069105
H         0.748814     1.727236    24.737949
21
Frame 45
C         3.527106     0.299622    24.353973
H         4.080544    -0.442259    23.749481
H         4.175044     0.654167    25.171984
H         3.370769     1.154661    23.705849
C        -0.398071    -1.730597    24.301247
H         0.345256    -2.346509    23.985853
C        -1.701612    -2.318428    24.508085
H        -1.873131    -3.307881    24.160273
C        -2.604902    -1.627769    25.306828
H        -3.530564    -2.139871    25.421507
C        -2.425270    -0.304246    25.554474
H        -3.261263     0.291776    25.979729
C         2.269149    -0.442481    24.785879
O         2.350962    -1.406927    25.516403
O         1.118510     0.156741    24.326771
C        -0.070634    -0.374095    24.606409
C        -1.121562     0.375780    25.207104
C        -0.903356     1.846030    25.474453
O        -1.586869     2.554366    26.137142
O         0.218586     2.460262    25.069946
H         0.726024     1.749780    24.646597
21
Frame 46
C         3.515829     0.317735    24.335707
H         4.094389    -0.396395    23.786690
H         4.166661     0.642406    25.180820
H         3.382598     1.219273    23.793707
C        -0.411420    -1.732855    24.297750
H         0.331517    -2.429943    23.842546
C        -1.738567    -2.271054    24.530861
H        -1.951787    -3.316078    24.170975
C        -2.594171    -1.630950    25.288706
H        -3.587363    -2.141097    25.447124
C        -2.438109    -0.280282    25.577835
H        -3.294864     0.274104    26.015079
C         2.328937    -0.423930    24.795103
O         2.380149    -1.423500    25.521698
O         1.144863     0.142661    24.297153
C        -0.078847    -0.350451    24.561882
C        -1.148200     0.313295    25.227205
C        -0.902054     1.857314    25.465904
O        -1.608856     2.542600    26.178558
O         0.228068     2.450478    25.067949
H         0.654648     1.696490    24.553432
21
Frame 47
C         3.523862     0.337033    24.327248
H         4.138597    -0.373328    23.756811
H         4.084096     0.578192    25.195904
H         3.287927     1.324681    23.801464
C        -0.426793    -1.734476    24.281986
H         0.282062    -2.406540    23.703865
C        -1.735291    -2.248456    24.547356
H        -2.016914    -3.254347    24.250124
C        -2.627649    -1.624422    25.265684
H        -3.554752    -2.075408    25.514555
C        -2.430837    -0.256948    25.599405
H        -3.239067     0.270314    26.072147
C         2.370569    -0.410273    24.809189
O         2.408534    -1.431437    25.520546
O         1.183238     0.129517    24.268906
C        -0.115128    -0.367053    24.535456
C        -1.167550     0.296755    25.239979
C        -0.901434     1.865848    25.473057
O        -1.636264     2.524075    26.216887
O         0.239511     2.433505    25.057346
H         0.527669     1.678149    24.541054
21
Frame 48
C         3.542262     0.363463    24.314518
H         4.163581    -0.312376    23.687172
H         4.041132     0.542759    25.286777
H         3.185243     1.286490    23.840506
C        -0.443435    -1.736631    24.243948
H         0.192053    -2.269292    23.667152
C        -1.706829    -2.253273    24.558332
H        -2.031097    -3.230469    24.320786
C        -2.681978    -1.584740    25.251774
H        -3.592756    -2.053792    25.586788
C        -2.410092    -0.254178    25.614004
H        -3.167803     0.340519    26.177876
C         2.383898    -0.408137    24.824017
O         2.437726    -1.427357    25.511751
O         1.218653     0.113600    24.244965
C        -0.155127    -0.413539    24.528151
C        -1.166575     0.339395    25.240862
C        -0.911632     1.864983    25.503132
O        -1.660581     2.498612    26.246834
O         0.243996     2.416265    25.044500
H         0.476201     1.596596    24.524372
21
Frame 49
C         3.566998     0.383145    24.314831
H         4.149578    -0.197978    23.615408
H         4.031813     0.560436    25.312428
H         3.116266     1.240466    23.868572
C        -0.475955    -1.726913    24.199001
H         0.282587    -2.266624    23.588533
C        -1.684439    -2.272685    24.570791
H        -1.973131    -3.329914    24.327595
C        -2.732968    -1.528690    25.250210
H        -3.677852    -2.044663    25.608490
C        -2.387428    -0.248797    25.628035
H        -3.053973     0.378717    26.248062
C         2.378443    -0.411489    24.827852
O         2.466247    -1.415443    25.498940
O         1.229859     0.086357    24.229410
C        -0.169613    -0.450790    24.535105
C        -1.148095     0.407106    25.228561
C        -0.923815     1.857127    25.548973
O        -1.680021     2.469953    26.269608
O         0.237481     2.391579    25.029434
H         0.498755     1.569735    24.556875
21
Frame 50
C         3.582802     0.394476    24.335043
H         4.154281    -0.109849    23.534887
H         4.080751     0.629063    25.242603
H         3.094853     1.297035    23.863586
C        -0.497139    -1.722963    24.144798
H         0.320893    -2.284920    23.604988
C        -1.695857    -2.304909    24.582994
H        -1.835628    -3.362525    24.325159
C        -2.766821    -1.491213    25.256050
H        -3.679852    -1.948774    25.553234
C        -2.358789    -0.217307    25.640448
H        -2.983758     0.361464    26.275269
C         2.370468    -0.412350    24.813030
O         2.491329    -1.402309    25.486586
O         1.207369     0.043879    24.224236
C        -0.149558    -0.445631    24.548063
C        -1.124201     0.452642    25.208744
C        -0.919881     1.845427    25.593462
O        -1.697054     2.444186    26.290377
O         0.216367     2.364537    25.019522
H         0.573692     1.558378    24.602537
21
Frame 51
C         3.577065     0.410728    24.347225
H         4.153274    -0.048676    23.518532
H         4.228841     0.733138    25.205479
H         3.169806     1.322021    23.912325
C        -0.501313    -1.725187    24.100601
H         0.237897    -2.291780    23.689280
C        -1.733892    -2.327332    24.590004
H        -1.749773    -3.371415    24.334705
C        -2.757905    -1.477067    25.256071
H        -3.742681    -1.853435    25.530069
C        -2.322583    -0.167575    25.641882
H        -3.035176     0.379463    26.303988
C         2.367920    -0.411990    24.783783
O         2.511292    -1.390657    25.476463
O         1.163079    -0.004265    24.227221
C        -0.113649    -0.406518    24.555761
C        -1.100760     0.455629    25.193165
C        -0.894537     1.829080    25.624943
O        -1.711667     2.424969    26.311516
O         0.185027     2.342745    25.019489
H         0.633341     1.528570    24.634029
21
Frame 52
C         3.570580     0.436587    24.355618
H         4.120667    -0.023160    23.559027
H         4.313702     0.768703    25.123842
H         3.240420     1.369858    23.967306
C        -0.513840    -1.714609    24.098877
H         0.253443    -2.407486    23.650612
C        -1.769440    -2.324696    24.584156
H        -1.836550    -3.421707    24.355316
C        -2.718484    -1.474247    25.253084
H        -3.768854    -1.786420    25.552139
C        -2.299201    -0.121012    25.632841
H        -3.059933     0.420607    26.239296
C         2.366964    -0.417912    24.751627
O         2.526425    -1.379316    25.467817
O         1.121785    -0.040131    24.232676
C        -0.093639    -0.376565    24.549343
C        -1.072817     0.431124    25.193176
C        -0.863688     1.806311    25.646114
O        -1.717818     2.410759    26.329660
O         0.155368     2.327956    25.025976
H         0.590576     1.549959    24.681309
21
Frame 53
C         3.567403     0.472839    24.360027
H         4.091763    -0.060689    23.557201
H         4.300434     0.697340    25.077169
H         3.230865     1.473383    23.982828
C        -0.522614    -1.710184    24.129539
H         0.190284    -2.407596    23.610306
C        -1.788156    -2.308981    24.562557
H        -2.057297    -3.369095    24.388596
C        -2.674277    -1.463342    25.258257
H        -3.634636    -1.757178    25.571692
C        -2.293949    -0.103145    25.607067
H        -3.023322     0.500859    26.110287
C         2.361940    -0.432355    24.725990
O         2.537470    -1.368046    25.459949
O         1.103563    -0.051219    24.234371
C        -0.108926    -0.389905    24.530409
C        -1.038249     0.404328    25.213881
C        -0.847497     1.779918    25.666470
O        -1.707726     2.397376    26.339930
O         0.130209     2.331802    25.039822
H         0.521887     1.491836    24.672701
21
Frame 54
C         3.552241     0.514450    24.342346
H         4.046011    -0.078986    23.543129
H         4.301683     0.579372    25.191502
H         3.197636     1.494696    24.006992
C        -0.531573    -1.723244    24.172380
H         0.083785    -2.291105    23.603722
C        -1.797330    -2.280757    24.537394
H        -2.263474    -3.254168    24.376261
C        -2.622170    -1.433735    25.269241
H        -3.575103    -1.819711    25.614346
C        -2.291775    -0.115821    25.562107
H        -3.025281     0.594228    26.027367
C         2.354610    -0.446801    24.707302
O         2.544233    -1.359735    25.453869
O         1.109855    -0.036931    24.229820
C        -0.148108    -0.443211    24.511118
C        -1.008139     0.382603    25.249443
C        -0.848925     1.758338    25.689274
O        -1.680346     2.382653    26.342661
O         0.115112     2.342550    25.054731
H         0.414928     1.493938    24.658098
21
Frame 55
C         3.533078     0.538820    24.325712
H         3.988372    -0.013142    23.524891
H         4.193821     0.473148    25.242710
H         3.157354     1.506292    24.030865
C        -0.556335    -1.747272    24.211466
H         0.140746    -2.290986    23.526651
C        -1.808734    -2.238779    24.523165
H        -2.329154    -3.185260    24.279430
C        -2.583389    -1.406882    25.282944
H        -3.552682    -1.863906    25.626968
C        -2.286758    -0.127876    25.517015
H        -3.031368     0.537861    25.973732
C         2.350835    -0.447426    24.688711
O         2.545867    -1.357353    25.450680
O         1.125679    -0.009294    24.220169
C        -0.177343    -0.500829    24.508364
C        -0.997937     0.357549    25.285419
C        -0.851514     1.746706    25.706860
O        -1.643755     2.368876    26.344719
O         0.106163     2.356026    25.070808
H         0.337208     1.532967    24.624332
21
Frame 56
C         3.502346     0.537907    24.320820
H         3.980128     0.088980    23.439503
H         4.039907     0.448683    25.203007
H         3.113019     1.560761    24.067152
C        -0.569737    -1.791174    24.214359
H         0.150112    -2.317820    23.562462
C        -1.827598    -2.198884    24.520350
H        -2.224932    -3.149741    24.151878
C        -2.578754    -1.403000    25.294388
H        -3.496873    -1.796601    25.579849
C        -2.276654    -0.129409    25.488335
H        -3.054724     0.412945    25.977036
C         2.354597    -0.431147    24.668474
O         2.540909    -1.359155    25.447811
O         1.134187     0.017068    24.207994
C        -0.170245    -0.527754    24.533611
C        -1.009915     0.327020    25.307570
C        -0.839341     1.741453    25.710382
O        -1.609449     2.359138    26.354105
O         0.099697     2.371568    25.088078
H         0.342740     1.551648    24.561579
21
Frame 57
C         3.450887     0.528805    24.302475
H         3.995699     0.209513    23.378441
H         4.040523     0.497523    25.258619
H         3.090092     1.548908    24.157677
C        -0.562494    -1.831732    24.189602
H         0.094110    -2.407184    23.661879
C        -1.841648    -2.180355    24.515663
H        -2.082472    -3.148358    24.081366
C        -2.596927    -1.412141    25.292755
H        -3.604836    -1.727774    25.555485
C        -2.271645    -0.134723    25.486906
H        -3.085365     0.392410    26.041967
C         2.361043    -0.411022    24.652655
O         2.528671    -1.358573    25.439299
O         1.129718     0.035522    24.196903
C        -0.126455    -0.522580    24.581684
C        -1.027348     0.303821    25.308563
C        -0.814905     1.735221    25.701420
O        -1.582611     2.353941    26.373880
O         0.100734     2.381424    25.098499
H         0.393335     1.650034    24.555416
21
Frame 58
C         3.407656     0.520918    24.287321
H         3.981254     0.319831    23.395706
H         4.071445     0.572276    25.204287
H         3.032650     1.531445    24.256315
C        -0.543509    -1.837873    24.170683
H         0.117378    -2.612855    23.643818
C        -1.836300    -2.194648    24.498528
H        -2.052016    -3.186400    24.111788
C        -2.649293    -1.424854    25.278355
H        -3.714173    -1.686628    25.535202
C        -2.287560    -0.148423    25.521338
H        -3.015029     0.455532    26.068018
C         2.356605    -0.401847    24.645681
O         2.511330    -1.349890    25.421221
O         1.119984     0.046189    24.191040
C        -0.068355    -0.510345    24.633303
C        -1.029534     0.301950    25.290424
C        -0.794613     1.725841    25.690477
O        -1.559863     2.350024    26.400717
O         0.111815     2.395487    25.103817
H         0.495909     1.684830    24.531387
21
Frame 59
C         3.382383     0.527255    24.288301
H         3.945930     0.364621    23.372223
H         4.080183     0.611206    25.042154
H         2.923368     1.542275    24.314329
C        -0.500455    -1.827316    24.160305
H         0.074198    -2.622204    23.647650
C        -1.818149    -2.235756    24.476376
H        -2.145061    -3.245261    24.201542
C        -2.730982    -1.435950    25.251904
H        -3.708353    -1.697693    25.499149
C        -2.310781    -0.167842    25.578440
H        -2.947457     0.552414    26.074329
C         2.333566    -0.406032    24.644264
O         2.491863    -1.334929    25.396076
O         1.115636     0.051633    24.193228
C        -0.023656    -0.511341    24.668825
C        -1.012540     0.318523    25.264149
C        -0.789065     1.721133    25.685814
O        -1.535904     2.342723    26.429344
O         0.138482     2.409529    25.099083
H         0.564223     1.714169    24.553263
21
Frame 60
C         3.359959     0.555320    24.284163
H         3.845771     0.354899    23.302242
H         4.193196     0.600366    25.026611
H         2.837965     1.511818    24.317854
C        -0.454543    -1.808317    24.168634
H         0.097314    -2.470489    23.629820
C        -1.808991    -2.284501    24.465641
H        -2.237663    -3.283682    24.261761
C        -2.796092    -1.444583    25.210819
H        -3.807299    -1.806755    25.485020
C        -2.322652    -0.181527    25.634413
H        -2.991550     0.581150    26.105597
C         2.299500    -0.411975    24.640057
O         2.471973    -1.322589    25.371407
O         1.119359     0.052279    24.203972
C        -0.006759    -0.524879    24.676151
C        -0.992022     0.334456    25.247030
C        -0.790718     1.731312    25.684870
O        -1.509073     2.330830    26.457537
O         0.176456     2.422909    25.088739
H         0.585202     1.709415    24.592102
21
Frame 61
C         3.351026     0.589224    24.278728
H         3.658840     0.341776    23.258545
H         4.224494     0.551948    25.010773
H         2.808352     1.528773    24.283791
C        -0.433583    -1.785188    24.198572
H         0.311384    -2.365365    23.527124
C        -1.818535    -2.318513    24.474655
H        -2.219741    -3.299289    24.222843
C        -2.832739    -1.463780    25.166824
H        -3.855951    -1.888146    25.428999
C        -2.324450    -0.183418    25.670586
H        -3.067372     0.465231    26.150146
C         2.271898    -0.406327    24.628210
O         2.452425    -1.320851    25.353458
O         1.123641     0.047589    24.220770
C        -0.018640    -0.533457    24.656578
C        -0.986528     0.334821    25.253942
C        -0.783956     1.757551    25.679056
O        -1.482017     2.316605    26.486284
O         0.216770     2.435147    25.080097
H         0.588642     1.635081    24.593134
21
Frame 62
C         3.344358     0.617164    24.273743
H         3.485837     0.344423    23.223732
H         4.145118     0.499953    24.926319
H         2.852991     1.619521    24.257919
C        -0.425026    -1.784766    24.221195
H         0.387550    -2.206411    23.598864
C        -1.832490    -2.326088    24.494072
H        -2.107282    -3.326941    24.098761
C        -2.835095    -1.492221    25.133102
H        -3.791769    -1.872013    25.314747
C        -2.325478    -0.195572    25.674232
H        -3.103855     0.344078    26.227039
C         2.266115    -0.388165    24.615515
O         2.433537    -1.329930    25.341948
O         1.118396     0.041256    24.238005
C        -0.056012    -0.520597    24.624592
C        -1.001093     0.322870    25.286901
C        -0.763488     1.789202    25.666321
O        -1.456423     2.303671    26.515869
O         0.257627     2.436202    25.070789
H         0.536171     1.632175    24.623421
21
Frame 63
C         3.312973     0.642871    24.252335
H         3.413472     0.366585    23.197342
H         4.193116     0.444600    24.910603
H         2.974632     1.683896    24.281452
C        -0.440450    -1.791723    24.242628
H         0.349390    -2.185073    23.742588
C        -1.824841    -2.320712    24.499548
H        -1.985703    -3.301959    24.009058
C        -2.791736    -1.510661    25.112799
H        -3.840082    -1.862094    25.224400
C        -2.335472    -0.234151    25.651440
H        -3.063612     0.313736    26.290672
C         2.280626    -0.368304    24.615292
O         2.416982    -1.343343    25.331839
O         1.099411     0.040714    24.249912
C        -0.111625    -0.488338    24.595764
C        -1.027153     0.312501    25.332058
C        -0.739644     1.810448    25.656736
O        -1.428821     2.295680    26.543034
O         0.292597     2.434482    25.066273
H         0.519661     1.592107    24.596989
21
Frame 64
C         3.285746     0.659330    24.226828
H         3.435289     0.420405    23.173958
H         4.215334     0.415493    24.830645
H         3.073635     1.730665    24.350664
C        -0.486929    -1.786261    24.275257
H         0.358690    -2.408011    23.774450
C        -1.782434    -2.312016    24.479990
H        -1.949017    -3.257809    24.019344
C        -2.740891    -1.521828    25.104914
H        -3.813999    -1.841745    25.174900
C        -2.349062    -0.283935    25.623129
H        -2.984390     0.328443    26.259203
C         2.293028    -0.355930    24.633482
O         2.406980    -1.354692    25.319269
O         1.069246     0.051512    24.253876
C        -0.173275    -0.451741    24.580700
C        -1.054497     0.312322    25.367393
C        -0.726504     1.810866    25.664028
O        -1.394925     2.294696    26.563725
O         0.321897     2.425966    25.063173
H         0.544783     1.598974    24.561472
21
Frame 65
C         3.282786     0.666356    24.204378
H         3.488063     0.509636    23.136665
H         4.162626     0.412268    24.674995
H         3.087356     1.736771    24.441235
C        -0.518146    -1.787491    24.294842
H         0.175835    -2.520819    23.861729
C        -1.728187    -2.298305    24.450630
H        -1.994758    -3.305976    24.077168
C        -2.702146    -1.534657    25.099892
H        -3.681579    -1.840453    25.182638
C        -2.348866    -0.317490    25.603285
H        -3.008597     0.337786    26.161064
C         2.279055    -0.349267    24.663212
O         2.406897    -1.363034    25.304787
O         1.034025     0.071857    24.251307
C        -0.224543    -0.424101    24.582939
C        -1.079762     0.320963    25.376984
C        -0.725441     1.789721    25.690134
O        -1.354976     2.301821    26.578320
O         0.343128     2.411339    25.062473
H         0.603170     1.646320    24.533281
21
Frame 66
C         3.286523     0.671630    24.176645
H         3.494806     0.622663    23.101482
H         4.256812     0.369292    24.615995
H         3.037741     1.673055    24.527130
C        -0.528479    -1.787534    24.300240
H         0.043596    -2.505298    23.908169
C        -1.701863    -2.296052    24.427717
H        -2.009015    -3.330295    24.162579
C        -2.658286    -1.549127    25.090322
H        -3.687344    -1.943285    25.251751
C        -2.337327    -0.316212    25.595705
H        -3.140664     0.297857    26.053375
C         2.234889    -0.339687    24.689676
O         2.415506    -1.370833    25.291199
O         0.998509     0.095393    24.246487
C        -0.248806    -0.414517    24.596859
C        -1.103592     0.333806    25.359346
C        -0.723810     1.755649    25.722672
O        -1.314108     2.316790    26.591938
O         0.350970     2.396211    25.070211
H         0.674670     1.636851    24.486296
21
Frame 67
C         3.302248     0.664902    24.157608
H         3.410741     0.737309    23.062996
H         4.308519     0.341567    24.583052
H         2.976219     1.619743    24.596937
C        -0.527492    -1.771636    24.296198
H         0.213464    -2.504673    23.800915
C        -1.715057    -2.310462    24.423203
H        -1.949031    -3.320222    24.212833
C        -2.630024    -1.571198    25.084248
H        -3.625047    -2.037048    25.309774
C        -2.336354    -0.284607    25.593416
H        -3.229287     0.207115    25.986502
C         2.179424    -0.322640    24.701015
O         2.426893    -1.377623    25.278881
O         0.964687     0.114526    24.243067
C        -0.240841    -0.423539    24.614391
C        -1.123953     0.349150    25.324471
C        -0.709755     1.724309    25.747837
O        -1.277447     2.336457    26.608921
O         0.346052     2.374130    25.083908
H         0.668172     1.663281    24.516745
21
Frame 68
C         3.317062     0.647355    24.154022
H         3.256783     0.824981    23.053322
H         4.243698     0.348994    24.524328
H         2.972037     1.580380    24.632570
C        -0.491662    -1.764462    24.264030
H         0.336232    -2.298992    23.762152
C        -1.742101    -2.331951    24.437391
H        -1.885526    -3.397961    24.170237
C        -2.624605    -1.592054    25.093277
H        -3.498933    -2.074316    25.329981
C        -2.356472    -0.252342    25.580746
H        -3.230131     0.186065    26.037888
C         2.142033    -0.303860    24.696512
O         2.432589    -1.377695    25.264502
O         0.935320     0.122607    24.241352
C        -0.214090    -0.441186    24.631899
C        -1.135538     0.366118    25.285309
C        -0.684857     1.711670    25.762651
O        -1.245809     2.354819    26.628490
O         0.327235     2.354659    25.109890
H         0.613949     1.607046    24.527197
21
Frame 69
C         3.294595     0.631472    24.154814
H         3.115241     0.856299    23.104668
H         4.304132     0.306625    24.497192
H         3.051145     1.554921    24.652472
C        -0.442708    -1.755729    24.217449
H         0.387646    -2.097473    23.741413
C        -1.745713    -2.368569    24.451176
H        -1.873295    -3.420894    24.107899
C        -2.628479    -1.595528    25.119707
H        -3.565443    -2.135513    25.372646
C        -2.391202    -0.237706    25.553516
H        -3.165421     0.279590    26.184511
C         2.142411    -0.293360    24.683254
O         2.426848    -1.365187    25.244951
O         0.916213     0.118864    24.239710
C        -0.188594    -0.458043    24.645737
C        -1.135569     0.379450    25.251741
C        -0.663121     1.724598    25.775049
O        -1.217511     2.365979    26.647411
O         0.303038     2.336525    25.140911
H         0.503974     1.555445    24.556810
21
Frame 70
C         3.254194     0.614763    24.166042
H         3.032277     0.840700    23.125822
H         4.311812     0.249823    24.412010
H         3.160927     1.580986    24.698891
C        -0.415587    -1.736522    24.179703
H         0.491176    -2.150741    23.598324
C        -1.707253    -2.405837    24.451748
H        -1.929042    -3.381827    24.085634
C        -2.659702    -1.597989    25.161617
H        -3.621266    -2.103479    25.411394
C        -2.424839    -0.227714    25.528034
H        -3.031747     0.361274    26.251854
C         2.171967    -0.292997    24.665493
O         2.411940    -1.341851    25.221714
O         0.915351     0.107203    24.237701
C        -0.176973    -0.467625    24.650526
C        -1.128893     0.382392    25.231091
C        -0.658441     1.753000    25.790775
O        -1.192515     2.369088    26.665779
O         0.282080     2.322738    25.170252
H         0.376795     1.547392    24.603662
