21
Frame 0
C         3.428000     0.280000    24.447001
H         3.964000     0.770000    25.271000
H         2.997000     1.004000    23.745998
H         4.227000    -0.272000    23.942001
C        -0.379000    -1.902001    24.722000
H         0.464000    -2.579999    24.784000
C        -1.675999    -2.432001    24.862999
H        -1.793001    -3.515999    24.865000
C        -2.743001    -1.472001    25.011002
H        -3.729999    -1.914999    24.941999
C        -2.492001    -0.120001    24.993999
H        -3.463001     0.371000    25.021999
C         2.315000    -0.483999    25.228001
O         2.482000    -1.412001    25.945999
O         1.159000     0.025000    24.770000
C        -0.095999    -0.495999    24.806000
C        -1.122999     0.421000    24.993000
C        -0.876000     1.952000    25.060999
O        -1.786001     2.724000    25.228001
O         0.441000     2.419000    25.060999
H         0.810000     1.610000    24.651001
21
Frame 1
C         3.433597     0.301386    24.437000
H         3.974611     0.703753    25.174736
H         2.934011     0.960104    23.665693
H         4.161354    -0.370941    23.930387
C        -0.372808    -1.911426    24.695101
H         0.530338    -2.528906    24.726370
C        -1.657712    -2.400169    24.877525
H        -1.827414    -3.543026    24.873455
C        -2.744117    -1.505699    25.006926
H        -3.828695    -1.851420    24.927433
C        -2.464745    -0.114703    24.995192
H        -3.399982     0.429727    24.943544
C         2.345067    -0.455310    25.245914
O         2.495396    -1.433685    25.991533
O         1.151471     0.033812    24.740143
C        -0.096114    -0.467055    24.823689
C        -1.130726     0.412347    24.959879
C        -0.885994     1.945213    25.101145
O        -1.807070     2.710968    25.235424
O         0.414376     2.404093    25.048487
H         0.780216     1.634415    24.606245
21
Frame 2
C         3.431502     0.302495    24.420641
H         4.100394     0.851325    25.223066
H         2.955526     0.914993    23.675625
H         4.008853    -0.485768    23.937851
C        -0.345089    -1.893451    24.691584
H         0.524964    -2.531500    24.569719
C        -1.649454    -2.388713    24.888832
H        -1.851923    -3.397727    24.873602
C        -2.747605    -1.537964    24.987333
H        -3.778374    -1.775389    25.007189
C        -2.443337    -0.123093    24.992887
H        -3.274302     0.644354    24.940342
C         2.370814    -0.431054    25.249508
O         2.507393    -1.445301    26.029781
O         1.154203     0.031346    24.710266
C        -0.099792    -0.465629    24.841381
C        -1.147933     0.424607    24.928152
C        -0.887702     1.929870    25.136806
O        -1.828296     2.699102    25.244705
O         0.370738     2.399842    25.033249
H         0.780305     1.544074    24.644510
21
Frame 3
C         3.445559     0.296171    24.434315
H         4.090474     0.934155    25.082714
H         2.994676     0.940538    23.665512
H         3.867848    -0.592399    23.935701
C        -0.309834    -1.856339    24.704382
H         0.484353    -2.563031    24.411076
C        -1.644790    -2.377186    24.891920
H        -1.874206    -3.437324    24.859312
C        -2.738898    -1.536191    24.965771
H        -3.779242    -1.823530    25.116161
C        -2.436702    -0.126433    24.981596
H        -3.107657     0.742692    25.026752
C         2.379874    -0.429106    25.253635
O         2.518109    -1.431234    26.049421
O         1.169721     0.019366    24.684658
C        -0.101180    -0.484965    24.850512
C        -1.157265     0.442943    24.910118
C        -0.899000     1.913521    25.160988
O        -1.845152     2.685776    25.256683
O         0.323698     2.393367    25.011959
H         0.715470     1.542487    24.825258
21
Frame 4
C         3.460469     0.280176    24.457140
H         4.074120     0.942438    24.907667
H         3.033824     0.956362    23.666861
H         3.818887    -0.624974    23.939383
C        -0.289052    -1.829689    24.719450
H         0.456189    -2.537661    24.365620
C        -1.635273    -2.372906    24.882679
H        -1.849179    -3.511915    24.837702
C        -2.728992    -1.504281    24.956141
H        -3.760777    -1.936293    25.170916
C        -2.430897    -0.115128    24.964312
H        -3.127086     0.663487    25.166496
C         2.372975    -0.445108    25.261000
O         2.526808    -1.390922    26.050659
O         1.193171    -0.002494    24.667061
C        -0.088739    -0.497730    24.846781
C        -1.149457     0.445758    24.911039
C        -0.928519     1.905457    25.170557
O        -1.856265     2.670253    25.272041
O         0.272591     2.392790    24.992685
H         0.689853     1.467270    25.000828
21
Frame 5
C         3.457085     0.248260    24.463230
H         4.224669     0.988713    24.940226
H         3.053119     0.889807    23.713497
H         3.901469    -0.577943    23.938484
C        -0.296850    -1.828732    24.728746
H         0.513257    -2.477190    24.459915
C        -1.618588    -2.381036    24.860939
H        -1.762440    -3.408635    24.820919
C        -2.722001    -1.471632    24.961664
H        -3.639047    -1.960118    25.133007
C        -2.427924    -0.095780    24.953909
H        -3.334701     0.526638    25.278032
C         2.361481    -0.456455    25.260447
O         2.531706    -1.339667    26.044231
O         1.216203    -0.031452    24.660643
C        -0.059927    -0.487812    24.830421
C        -1.127629     0.430292    24.929373
C        -0.966377     1.904549    25.163614
O        -1.868472     2.655531    25.290287
O         0.227931     2.384298    24.979839
H         0.639135     1.510214    25.089127
21
Frame 6
C         3.469377     0.222887    24.474663
H         4.222433     0.840275    25.014378
H         2.999613     0.842355    23.697189
H         4.063012    -0.537391    23.915585
C        -0.316405    -1.843393    24.732637
H         0.611267    -2.453208    24.634274
C        -1.596875    -2.365549    24.832832
H        -1.707799    -3.450840    24.803520
C        -2.688138    -1.454473    24.969414
H        -3.668203    -1.916409    25.070486
C        -2.452066    -0.077717    24.966299
H        -3.397636     0.398515    25.246983
C         2.357649    -0.448148    25.240934
O         2.532189    -1.293449    26.042784
O         1.233862    -0.060735    24.663139
C        -0.028293    -0.467546    24.807030
C        -1.104794     0.415199    24.958382
C        -0.995853     1.899419    25.141714
O        -1.891019     2.645619    25.311003
O         0.188475     2.377639    24.974375
H         0.628885     1.535716    25.070889
21
Frame 7
C         3.495232     0.198312    24.475031
H         4.113708     0.649535    25.156811
H         2.984531     0.820959    23.687160
H         4.164989    -0.490108    23.938648
C        -0.312300    -1.855056    24.736828
H         0.577979    -2.470136    24.796673
C        -1.579077    -2.346377    24.804163
H        -1.700795    -3.491080    24.793196
C        -2.644975    -1.455266    24.970358
H        -3.724222    -1.812220    25.012787
C        -2.479415    -0.082557    24.998379
H        -3.374486     0.469481    25.120502
C         2.371032    -0.428896    25.206926
O         2.528578    -1.255951    26.050858
O         1.245356    -0.079551    24.667025
C        -0.011628    -0.462086    24.785269
C        -1.097603     0.416576    24.989277
C        -1.012561     1.886278    25.110731
O        -1.926019     2.639860    25.333668
O         0.155594     2.377707    24.973753
H         0.660221     1.492662    24.967064
21
Frame 8
C         3.515960     0.171746    24.457752
H         4.065835     0.617252    25.399254
H         3.094769     0.838439    23.740425
H         4.196393    -0.499113    23.983616
C        -0.284379    -1.850536    24.747940
H         0.496950    -2.570064    24.850666
C        -1.568239    -2.348044    24.781696
H        -1.726539    -3.366992    24.785160
C        -2.626402    -1.464026    24.960979
H        -3.635852    -1.715772    24.968681
C        -2.478354    -0.101209    25.037590
H        -3.363311     0.678857    25.005667
C         2.400329    -0.421445    25.173054
O         2.522256    -1.223514    26.064934
O         1.250650    -0.077274    24.663483
C        -0.016823    -0.481005    24.776302
C        -1.114030     0.427720    25.010977
C        -1.027930     1.876853    25.081060
O        -1.965604     2.631603    25.355381
O         0.140319     2.372659    24.974337
H         0.609778     1.571890    24.809265
21
Frame 9
C         3.550015     0.158441    24.466064
H         3.947206     0.590374    25.395096
H         3.238369     0.959504    23.760254
H         4.219960    -0.608840    24.004341
C        -0.253625    -1.847830    24.765572
H         0.498220    -2.671878    24.779121
C        -1.560009    -2.341805    24.771128
H        -1.793883    -3.411899    24.757498
C        -2.621882    -1.465235    24.941864
H        -3.653729    -1.776409    24.938396
C        -2.457807    -0.096872    25.072285
H        -3.220243     0.665737    24.980499
C         2.429735    -0.438359    25.147345
O         2.515948    -1.192956    26.080751
O         1.250936    -0.053205    24.647228
C        -0.034611    -0.505795    24.787811
C        -1.144419     0.428601    25.016127
C        -1.054249     1.883453    25.062344
O        -1.999879     2.615855    25.373087
O         0.134491     2.376737    24.972763
H         0.602732     1.548626    24.640385
21
Frame 10
C         3.592893     0.152996    24.477489
H         3.924497     0.610056    25.318253
H         3.389006     1.033670    23.806475
H         4.193923    -0.679295    24.060295
C        -0.229673    -1.872323    24.783005
H         0.541605    -2.616889    24.634760
C        -1.556726    -2.339907    24.773054
H        -1.821389    -3.458500    24.701603
C        -2.636492    -1.461186    24.919054
H        -3.685164    -1.913984    24.906637
C        -2.413898    -0.087404    25.094612
H        -3.224223     0.558491    25.072840
C         2.442611    -0.471914    25.126276
O         2.511350    -1.165605    26.098211
O         1.247549    -0.014644    24.619480
C        -0.050371    -0.512567    24.819099
C        -1.169059     0.414035    25.005457
C        -1.088359     1.903463    25.057432
O        -2.026989     2.595544    25.386669
O         0.139138     2.379541    24.962223
H         0.553545     1.581985    24.572695
