21
Frame 0
C         3.428000     0.280000    24.447001
H         3.964000     0.770000    25.271000
H         2.997000     1.004000    23.745998
H         4.227000    -0.272000    23.942001
C        -0.379000    -1.902001    24.722000
H         0.464000    -2.579999    24.784000
C        -1.675999    -2.432001    24.862999
H        -1.793001    -3.515999    24.865000
C        -2.743001    -1.472001    25.011002
H        -3.729999    -1.914999    24.941999
C        -2.492001    -0.120001    24.993999
H        -3.463001     0.371000    25.021999
C         2.315000    -0.483999    25.228001
O         2.482000    -1.412001    25.945999
O         1.159000     0.025000    24.770000
C        -0.095999    -0.495999    24.806000
C        -1.122999     0.421000    24.993000
C        -0.876000     1.952000    25.060999
O        -1.786001     2.724000    25.228001
O         0.441000     2.419000    25.060999
H         0.810000     1.610000    24.651001
21
Frame 1
C         3.410495     0.271913    24.444754
H         3.986040     0.789042    25.246847
H         3.005025     0.955031    23.730808
H         4.174053    -0.290859    23.849840
C        -0.360169    -1.870804    24.735600
H         0.449722    -2.565238    24.811581
C        -1.673198    -2.454884    24.909735
H        -1.802008    -3.515677    24.767803
C        -2.765052    -1.515300    25.035971
H        -3.741975    -1.973908    25.054352
C        -2.521250    -0.118725    24.982164
H        -3.463335     0.465502    25.083672
C         2.307181    -0.490696    25.174150
O         2.493618    -1.419928    25.971395
O         1.149762     0.017718    24.735472
C        -0.107701    -0.458543    24.833784
C        -1.131086     0.399133    24.990942
C        -0.854058     2.225069    25.166618
O        -1.791401     2.722116    25.207714
O        -2.379947     8.147169    27.916336
H        -3.676932     8.094650    28.050222
21
Frame 2
C         3.409876     0.262972    24.450726
H         3.962688     0.818154    25.173895
H         2.965186     0.978181    23.704758
H         4.019001    -0.376964    23.833017
C        -0.349689    -1.841974    24.772308
H         0.495467    -2.554672    24.699404
C        -1.664836    -2.449501    24.941967
H        -1.839607    -3.556468    24.770498
C        -2.774034    -1.574719    25.048050
H        -3.807147    -1.969550    25.191916
C        -2.542739    -0.123298    24.985697
H        -3.337712     0.635842    25.132788
C         2.312238    -0.505929    25.117527
O         2.499840    -1.420107    25.989256
O         1.137241     0.015173    24.701508
C        -0.111518    -0.441508    24.863043
C        -1.166539     0.497873    25.009716
C        -1.158559     3.919652    25.991932
O        -1.880822     2.684241    25.140467
O        -5.155598    12.649012    30.281013
H        -3.768370    16.243736    31.067551
21
Frame 3
C         3.405663     0.259617    24.444607
H         3.983063     0.866051    25.159176
H         2.943369     0.968302    23.753807
H         3.894753    -0.521770    23.844601
C        -0.347385    -1.827800    24.818659
H         0.500492    -2.466295    24.535343
C        -1.652269    -2.435892    24.955236
H        -1.833360    -3.497906    24.901152
C        -2.782319    -1.618273    25.057638
H        -3.799131    -1.940684    25.267227
C        -2.537181    -0.115254    25.008490
H        -3.235018     0.694063    25.168627
C         2.322165    -0.539849    25.081142
O         2.499750    -1.402743    25.988754
O         1.129253     0.015759    24.669914
C        -0.118256    -0.411770    24.894684
C        -1.241214     1.040574    25.198181
C        -2.535398     7.164824    27.650982
O        -1.984694     2.936312    25.213474
O        -6.845758    15.124428    31.923790
H        -7.997812    27.588619    31.239452
21
Frame 4
C         3.400765     0.251797    24.432129
H         4.018260     0.838086    25.158875
H         2.926936     0.965039    23.788126
H         3.851757    -0.604918    23.882544
C        -0.360863    -1.810713    24.852070
H         0.468475    -2.364256    24.450037
C        -1.637537    -2.414985    24.965477
H        -1.774375    -3.479667    25.053904
C        -2.767124    -1.612327    25.064323
H        -3.779428    -1.974642    25.239332
C        -2.482686    -0.001020    25.081556
H        -3.387508     0.566997    25.198761
C         2.324753    -0.574253    25.066414
O         2.495204    -1.373088    25.971745
O         1.132616     0.010425    24.642420
C        -0.179143    -0.228429    24.965034
C        -1.570134     2.374895    25.783009
C        -4.557211     9.869198    29.082314
O        -2.311695     4.492473    26.015654
O        -7.894210    16.030857    32.541767
H        -8.100605    11.583224    33.255775
21
Frame 5
C         3.399803     0.230698    24.421387
H         4.031691     0.704876    25.145559
H         2.918094     0.996053    23.745070
H         3.893611    -0.569980    23.915306
C        -0.403419    -1.718843    24.873299
H         0.454002    -2.329533    24.484051
C        -1.621149    -2.393067    24.988897
H        -1.687458    -3.513055    25.106020
C        -2.707758    -1.520774    25.083412
H        -3.732419    -2.031736    25.141434
C        -2.402105     0.458629    25.280071
H        -3.662364     0.279976    25.198151
C         2.313872    -0.585577    25.057909
O         2.487790    -1.343234    25.950891
O         1.136795     0.007873    24.621918
C        -0.414193     0.360657    25.186302
C        -2.346804     4.211140    26.718616
C        -5.948462    10.580942    29.524456
O        -3.357139     7.791604    27.803679
O        -8.323792    15.634541    32.597660
H        -7.111075    20.569384    32.732548
21
Frame 6
C         3.392396     0.203458    24.404541
H         4.063117     0.578800    25.192768
H         2.992956     0.966045    23.726664
H         4.018348    -0.521472    23.862206
C        -0.495462    -1.409588    24.926737
H         0.372399    -2.171395    24.635447
C        -1.600466    -2.359965    25.024532
H        -1.615679    -3.454919    24.997021
C        -2.650030    -1.244016    25.138189
H        -3.542740    -1.936135    25.096846
C        -2.409022     1.456020    25.744417
H        -3.320162     0.392452    25.319077
C         2.290081    -0.563128    25.044647
O         2.477798    -1.320839    25.938223
O         1.079848     0.060982    24.631569
C        -0.931742     1.484244    25.663279
C        -3.342667     5.619906    27.543625
C        -6.402824    10.247240    29.540493
O        -5.085644    11.947700    30.100725
O        -8.041826    13.565771    32.090961
H        -9.778728    15.522684    31.676216
21
Frame 7
C         3.398019     0.166773    24.385334
H         4.044007     0.496892    25.231913
H         3.089800     0.949969    23.722353
H         4.096384    -0.464158    23.784679
C        -0.708416    -0.691266    25.109592
H         0.140100    -1.549752    24.838381
C        -1.581492    -2.217169    25.071770
H        -1.582298    -3.343089    24.766455
C        -2.565665    -0.621295    25.289406
H        -3.364706    -1.500328    25.123701
C        -2.685485     2.811514    26.480068
H        -2.757411     1.697037    25.876329
C         2.246882    -0.502133    25.026241
O         2.464735    -1.304934    25.933819
O         0.836759     0.302459    24.760872
C        -1.593199     2.804048    26.292686
C        -4.096148     6.023552    27.870541
C        -6.396941    10.391018    29.963758
O        -7.045384    15.682387    32.243824
O        -7.837242    10.827158    31.090160
H        -6.714831    11.826654    31.750948
21
Frame 8
C         3.422166     0.130258    24.363445
H         3.970515     0.461840    25.221064
H         3.140268     1.002857    23.725798
H         4.061233    -0.454216    23.743523
C        -1.129203     0.499620    25.518726
H        -0.481169    -0.673671    25.078274
C        -1.588187    -1.771963    25.153961
H        -1.531508    -2.919288    24.585588
C        -2.488575     0.444717    25.653351
H        -3.233905    -0.424016    25.216400
C        -3.169668     4.035472    27.212507
H        -4.152918     2.973968    26.463728
C         2.134032    -0.386729    25.021704
O         2.445049    -1.284974    25.923264
O         0.345822     0.918975    25.111753
C        -2.013302     3.766365    26.766685
C        -4.436483     5.825253    27.958370
C        -6.469202    12.068068    31.119820
O        -8.763137    17.753952    33.660332
O        -7.290313     7.880819    30.106567
H        -7.209949    10.126058    29.716328
21
Frame 9
C         3.426144     0.122576    24.335674
H         3.968146     0.476281    25.229832
H         3.192169     1.026351    23.786282
H         3.985536    -0.603132    23.694130
C        -1.746597     1.872380    26.084675
H        -1.328027     0.569785    25.548639
C        -1.671407    -0.734346    25.368359
H        -1.399980    -1.780672    24.632271
C        -2.546725     1.849472    26.244953
H        -3.330364     1.294158    25.448772
C        -3.740952     4.670689    27.655298
H        -5.065335     5.294185    27.770271
C         1.847629    -0.145583    25.088078
O         2.402981    -1.237886    25.885363
O        -0.285704     1.899437    25.678154
C        -2.149956     4.040535    26.941505
C        -4.564989     6.072568    28.292313
C        -7.234768    14.100471    32.511158
O        -9.739575    17.922070    34.237816
O        -6.644960     5.376811    29.242882
H        -8.019376    13.348990    29.073463
