21
Frame 0
C         3.428000     0.280000   303.147003
H         3.964000     0.770000   303.971008
H         2.997000     1.004000   302.446014
H         4.227000    -0.272007   302.641998
C        -0.379009    -1.902008   303.421997
H         0.464000    -2.579994   303.484009
C        -1.676006    -2.432003   303.562988
H        -1.793003    -3.516006   303.565002
C        -2.742996    -1.471996   303.710999
H        -3.729992    -1.914997   303.641998
C        -2.492008    -0.119991   303.694000
H        -3.463001     0.371000   303.721985
C         2.315000    -0.484009   303.928009
O         2.482000    -1.411991   304.646027
O         1.159000     0.025000   303.470001
C        -0.095997    -0.496006   303.506012
C        -1.123009     0.421000   303.692993
C        -0.876007     1.952000   303.761017
O        -1.786003     2.724000   303.928009
O         0.441000     2.419000   303.761017
H         0.810000     1.610000   303.351013
21
Frame 1
C         3.430583     0.268846   303.156403
H         3.948617     0.862848   303.916565
H         3.008163     1.008105   302.466003
H         4.098281    -0.448856   302.655396
C        -0.360851    -1.893616   303.448364
H         0.467493    -2.594147   303.338104
C        -1.674252    -2.406387   303.559631
H        -1.879635    -3.483162   303.577301
C        -2.729530    -1.519279   303.690338
H        -3.781319    -1.822453   303.758026
C        -2.482853    -0.114517   303.694977
H        -3.280125     0.661179   303.800293
C         2.348075    -0.405216   303.964630
O         2.473670    -1.441784   304.627136
O         1.159668    -0.007839   303.441772
C        -0.101585    -0.503006   303.521484
C        -1.147976     0.432472   303.702454
C        -0.868759     1.954551   303.683655
O        -1.781864     2.721910   303.952881
O         0.408213     2.417718   303.769562
H         0.816417     1.539135   303.565430
21
Frame 2
C         3.427200     0.249794   303.168762
H         4.073928     0.900239   303.768433
H         2.999447     0.905713   302.396973
H         3.873260    -0.650272   302.734314
C        -0.336761    -1.889343   303.484833
H         0.482897    -2.548447   303.217926
C        -1.664886    -2.385044   303.551483
H        -1.896648    -3.454895   303.548431
C        -2.743778    -1.511974   303.670044
H        -3.752155    -1.878853   303.882507
C        -2.441273    -0.076275   303.713989
H        -3.187943     0.691002   303.897278
C         2.389739    -0.295715   304.128357
O         2.453719    -1.465492   304.545898
O         1.181105    -0.063801   303.361633
C        -0.108128    -0.510864   303.574249
C        -1.141376     0.436245   303.702423
C        -0.921898     1.973721   303.506409
O        -1.750355     2.709874   304.005432
O         0.344766     2.392705   303.801819
H         0.740667     1.506485   303.909790
21
Frame 3
C         3.401172     0.230491   303.193481
H         4.296642     0.758286   303.571808
H         2.955524     0.716724   302.311920
H         3.823779    -0.700703   302.782593
C        -0.344982    -1.885853   303.506500
H         0.511719    -2.538433   303.347107
C        -1.658726    -2.380829   303.538757
H        -1.774769    -3.462524   303.477356
C        -2.738934    -1.427174   303.691437
H        -3.716412    -1.886024   303.777527
C        -2.426376    -0.066776   303.757233
H        -3.339710     0.503725   303.872101
C         2.351771    -0.250034   304.272949
O         2.434027    -1.439476   304.446655
O         1.251887    -0.110703   303.308960
C        -0.055256    -0.507164   303.623077
C        -1.083031     0.462985   303.662750
C        -0.999355     1.986608   303.362000
O        -1.704273     2.693871   304.046265
O         0.256023     2.341612   303.850189
H         0.592274     1.430223   303.928467
21
Frame 4
C         3.373966     0.197379   303.232819
H         4.265695     0.712950   303.586945
H         3.012646     0.725281   302.338318
H         3.791679    -0.714588   302.799530
C        -0.344982    -1.867256   303.548279
H         0.427561    -2.625828   303.458588
C        -1.659241    -2.343407   303.526062
H        -1.857224    -3.419762   303.439087
C        -2.677345    -1.420021   303.727386
H        -3.761101    -1.610012   303.627533
C        -2.428074    -0.062199   303.802307
H        -3.276691     0.685822   303.711060
C         2.290077    -0.248260   304.208618
O         2.419313    -1.406822   304.407990
O         1.326531    -0.137272   303.349609
C         0.035274    -0.484810   303.602417
C        -1.071682     0.496931   303.593689
C        -1.005173     1.989003   303.372284
O        -1.682568     2.679491   304.046692
O         0.142056     2.259666   303.872131
H         0.466821     1.366979   303.651947
21
Frame 5
C         3.371253     0.177786   303.236969
H         3.999709     0.737800   303.958008
H         3.066621     0.904733   302.468475
H         3.801243    -0.726852   302.784241
C        -0.312233    -1.853466   303.598877
H         0.439059    -2.617359   303.449036
C        -1.660156    -2.298126   303.535706
H        -1.985168    -3.337288   303.416046
C        -2.661209    -1.389160   303.745270
H        -3.704891    -1.728592   303.673187
C        -2.356205     0.003185   303.786011
H        -3.180504     0.701735   303.746063
C         2.331333    -0.282707   304.090607
O         2.406584    -1.406746   304.440857
O         1.322945    -0.109482   303.367126
C         0.026014    -0.470219   303.551544
C        -1.073627     0.470332   303.537048
C        -1.004734     1.959702   303.458344
O        -1.716175     2.689374   304.029266
O         0.090013     2.162351   303.876617
H         0.492923     1.418524   303.397461
21
Frame 6
C         3.406303     0.201593   303.221802
H         3.862596     0.600084   304.135712
H         3.073530     1.040967   302.598236
H         4.010933    -0.583973   302.738678
C        -0.292740    -1.857300   303.599701
H         0.559616    -2.523727   303.492401
C        -1.648159    -2.262764   303.572266
H        -1.858311    -3.331013   303.510406
C        -2.673664    -1.318378   303.740509
H        -3.622360    -1.768284   303.889832
C        -2.323627     0.021326   303.730988
H        -3.135643     0.695576   303.914642
C         2.409693    -0.344181   304.063812
O         2.406060    -1.448746   304.510773
O         1.248481    -0.030575   303.291901
C        -0.041752    -0.499077   303.525787
C        -1.047764     0.452537   303.514526
C        -1.053448     1.897323   303.482697
O        -1.797199     2.717747   304.028320
O         0.154886     2.107075   303.898834
H         0.598817     1.376970   303.410583
21
Frame 7
C         3.479738     0.240816   303.223816
H         4.165904     0.631563   303.985779
H         3.129089     1.102106   302.643311
H         4.162354    -0.403290   302.672302
C        -0.301323    -1.856728   303.552490
H         0.478655    -2.617760   303.495453
C        -1.614494    -2.260914   303.626678
H        -1.788292    -3.328228   303.782104
C        -2.666302    -1.310806   303.735229
H        -3.728886    -1.470051   304.051453
C        -2.377300     0.000425   303.685486
H        -3.163109     0.768739   303.962860
C         2.357040    -0.375500   304.056976
O         2.429237    -1.513672   304.574707
O         1.215550    -0.010872   303.215363
C        -0.033054    -0.500050   303.490662
C        -1.091461     0.445145   303.534668
C        -1.057491     1.925241   303.471954
O        -1.869144     2.701285   304.024384
O         0.242424     2.129486   303.933594
H         0.611458     1.249818   303.690887
21
Frame 8
C         3.572589     0.286011   303.253906
H         4.377905     0.761195   303.824188
H         3.193281     1.102501   302.621582
H         3.984931    -0.465736   302.545990
C        -0.308285    -1.861191   303.485657
H         0.440459    -2.634106   303.425323
C        -1.626415    -2.293892   303.712952
H        -1.863937    -3.335171   303.955933
C        -2.679214    -1.336308   303.762268
H        -3.726292    -1.634541   303.978058
C        -2.450199    -0.001926   303.662384
H        -3.328724     0.643360   303.765137
C         2.279902    -0.393314   304.052399
O         2.440458    -1.528435   304.581726
O         1.258017    -0.094872   303.187317
C        -0.018501    -0.465298   303.424103
C        -1.146183     0.466595   303.558380
C        -0.978756     2.011527   303.490509
O        -1.891193     2.646103   304.001526
O         0.262870     2.217469   303.977966
H         0.563193     1.296498   303.867584
21
Frame 9
C         3.580940     0.289611   303.279297
H         4.395155     0.678085   303.927155
H         3.202475     1.083206   302.633392
H         3.776336    -0.522385   302.584717
C        -0.339394    -1.859512   303.421448
H         0.540367    -2.507324   303.367798
C        -1.662807    -2.313805   303.814667
H        -1.876316    -3.388653   303.877869
C        -2.716751    -1.418209   303.806427
H        -3.622303    -1.920052   303.867950
C        -2.519188    -0.011196   303.635498
H        -3.361187     0.644035   303.605072
C         2.364213    -0.379219   304.085052
O         2.416110    -1.485977   304.529358
O         1.304883    -0.193996   303.174988
C        -0.073318    -0.475521   303.358643
C        -1.107979     0.546896   303.554932
C        -0.929203     2.020768   303.509430
O        -1.864605     2.609198   303.973511
O         0.248979     2.333866   304.042725
H         0.604476     1.451563   303.815674
21
Frame 10
C         3.502403     0.238485   303.301514
H         4.311474     0.398108   304.016144
H         3.202075     1.152470   302.764771
H         3.941138    -0.543766   302.663452
C        -0.419998    -1.837654   303.413574
H         0.394829    -2.551842   303.231140
C        -1.642704    -2.339020   303.849976
H        -1.798611    -3.414955   303.861267
C        -2.757607    -1.490841   303.849274
H        -3.814278    -1.890774   303.864258
C        -2.487164    -0.027790   303.602234
H        -3.369102     0.681802   303.644501
C         2.453510    -0.296783   304.108887
O         2.402025    -1.450710   304.470642
O         1.335232    -0.238094   303.173096
C        -0.084019    -0.488663   303.316284
C        -1.097698     0.526822   303.530365
C        -0.921021     2.000346   303.505524
O        -1.823044     2.613526   303.951111
O         0.231964     2.424893   304.108490
H         0.749691     1.682318   303.761047
21
Frame 11
C         3.472005     0.178504   303.305145
H         4.207054     0.351790   304.089081
H         3.255958     1.177962   302.914886
H         3.915058    -0.546150   302.602417
C        -0.458794    -1.837540   303.425598
H         0.270890    -2.592983   303.272522
C        -1.665688    -2.372551   303.816467
H        -1.723671    -3.460236   303.982422
C        -2.767353    -1.450157   303.854309
H        -3.824139    -1.737347   304.098358
C        -2.421894    -0.099182   303.609680
H        -3.231487     0.627679   303.732208
C         2.352786    -0.286579   304.108337
O         2.424407    -1.414146   304.434326
O         1.361179    -0.189037   303.174561
C        -0.029907    -0.486889   303.327667
C        -1.104088     0.421084   303.496552
C        -0.901852     1.999682   303.494934
O        -1.806564     2.651846   303.934601
O         0.212225     2.455473   304.144836
H         0.871748     1.842960   303.817932
21
Frame 12
C         3.472361     0.165349   303.327820
H         4.243666     0.329788   304.095551
H         3.304033     1.140758   302.868500
H         3.657222    -0.545387   302.516754
C        -0.387592    -1.892166   303.437805
H         0.460653    -2.573833   303.483124
C        -1.748085    -2.367420   303.760834
H        -1.911201    -3.424091   304.015350
C        -2.728481    -1.413136   303.855865
H        -3.650169    -1.643353   304.258179
C        -2.389450    -0.139484   303.657043
H        -3.139210     0.582216   303.820374
C         2.213254    -0.316429   304.080475
O         2.447215    -1.415730   304.435150
O         1.327798    -0.077610   303.156616
C         0.007011    -0.519619   303.365814
C        -1.035080     0.395548   303.467224
C        -0.904465     1.988054   303.493011
O        -1.806965     2.692778   303.907593
O         0.200005     2.429870   304.156555
H         0.855028     1.784388   303.880432
21
Frame 13
C         3.429547     0.195426   303.361877
H         4.362101     0.129312   303.953644
H         3.273790     1.133982   302.822174
H         3.566227    -0.549507   302.558960
C        -0.296459    -1.974220   303.486542
H         0.521645    -2.721729   303.512878
C        -1.732159    -2.353745   303.686157
H        -2.143497    -3.328133   303.943909
C        -2.688255    -1.419258   303.878967
H        -3.725815    -1.672192   304.204803
C        -2.322235    -0.057640   303.713074
H        -3.177738     0.630969   303.954071
C         2.242491    -0.297508   304.061157
O         2.423125    -1.464329   304.453461
O         1.212926     0.012835   303.128540
C         0.018864    -0.545921   303.393219
C        -1.003017     0.441743   303.458191
C        -0.915680     1.983572   303.493927
O        -1.812553     2.704917   303.865265
O         0.199305     2.353066   304.149658
H         0.665715     1.535290   303.884491
21
Frame 14
C         3.402214     0.226010   303.338257
H         4.318706     0.080921   303.902405
H         3.232848     1.251806   302.969452
H         3.534861    -0.506554   302.546143
C        -0.275822    -2.015305   303.535583
H         0.411349    -2.821293   303.352356
C        -1.628990    -2.364883   303.648010
H        -1.911583    -3.444748   303.640503
C        -2.645035    -1.357899   303.888458
H        -3.710594    -1.733322   303.966675
C        -2.287846     0.020818   303.789886
H        -3.054790     0.801145   303.972107
C         2.314823    -0.303860   304.060791
O         2.354598    -1.475258   304.454590
O         1.155439     0.034276   303.160126
C        -0.026875    -0.538177   303.400757
C        -1.034889     0.479953   303.500305
C        -0.902348     2.001912   303.463196
O        -1.823387     2.698435   303.820770
O         0.203798     2.230409   304.131775
H         0.451329     1.314675   303.859253
21
Frame 15
C         3.418703     0.245107   303.263885
H         4.248348     0.238303   303.984436
H         3.198540     1.312464   303.161804
H         3.479802    -0.296116   302.306091
C        -0.300426    -1.943741   303.527557
H         0.519849    -2.626514   303.277069
C        -1.557941    -2.374439   303.643646
H        -1.651096    -3.427963   303.406219
C        -2.567711    -1.327686   303.852905
H        -3.577576    -1.559181   303.890167
C        -2.324162     0.056724   303.885529
H        -3.155689     0.715590   303.919434
C         2.260298    -0.326176   304.060516
O         2.285135    -1.450195   304.437500
O         1.220981    -0.024776   303.257660
C        -0.087452    -0.529060   303.412689
C        -1.058197     0.493102   303.570892
C        -0.898609     1.993601   303.400604
O        -1.813107     2.708999   303.778687
O         0.201837     2.110042   304.124725
H         0.505450     1.214046   303.850372
21
Frame 16
C         3.399593     0.276633   303.220978
H         4.327247     0.206262   303.825958
H         3.154861     1.342327   303.157288
H         3.569603    -0.027695   302.169617
C        -0.298157    -1.801586   303.464996
H         0.541229    -2.464390   303.278534
C        -1.543179    -2.339783   303.634369
H        -1.848736    -3.400612   303.547455
C        -2.527809    -1.361904   303.819275
H        -3.573151    -1.645832   303.857391
C        -2.374420     0.028199   303.945557
H        -3.290195     0.656687   303.977142
C         2.237120    -0.319347   304.086487
O         2.242343    -1.448288   304.431580
O         1.262368    -0.122662   303.315613
C        -0.048771    -0.480042   303.438293
C        -1.084309     0.505407   303.641968
C        -0.917301     1.931113   303.364014
O        -1.765251     2.733519   303.729187
O         0.188551     2.046891   304.131653
H         0.657882     1.238709   303.858521
21
Frame 17
C         3.362850     0.330793   303.217163
H         4.353456     0.105029   303.573486
H         3.171388     1.405154   303.145935
H         3.403797    -0.071659   302.198364
C        -0.289307    -1.745949   303.398468
H         0.424517    -2.506065   303.151062
C        -1.579037    -2.263145   303.611267
H        -1.803493    -3.337002   303.720673
C        -2.598686    -1.413174   303.832672
H        -3.586388    -1.965389   303.893005
C        -2.396622    -0.041122   303.934204
H        -3.221951     0.700578   304.120605
C         2.316060    -0.321350   304.147339
O         2.257104    -1.474667   304.461151
O         1.252966    -0.155220   303.266693
C        -0.006905    -0.403004   303.481628
C        -1.098976     0.489218   303.692963
C        -0.922318     1.874901   303.401154
O        -1.697693     2.749902   303.667450
O         0.168721     2.058381   304.138733
H         0.618678     1.251497   303.840881
