21
Frame 0
C         3.428000     0.280000    24.447001
H         3.964000     0.770000    25.271000
H         2.997000     1.004000    23.745998
H         4.227000    -0.272000    23.942001
C        -0.379000    -1.902000    24.722000
H         0.464000    -2.580000    24.784000
C        -1.676000    -2.432000    24.862999
H        -1.793000    -3.516000    24.865000
C        -2.743000    -1.472000    25.011002
H        -3.730000    -1.915000    24.941999
C        -2.492000    -0.120000    24.993999
H        -3.463000     0.371000    25.021999
C         2.315000    -0.484000    25.228001
O         2.482000    -1.412000    25.945999
O         1.159000     0.025000    24.770000
C        -0.096000    -0.496000    24.806002
C        -1.123000     0.421000    24.993000
C        -0.876000     1.952000    25.060999
O        -1.786000     2.724000    25.228001
O         0.441000     2.419000    25.060999
H         0.810000     1.610000    24.651001
21
Frame 1
C         3.497529     0.311439    24.523256
H         3.179041     1.083392    25.210667
H         3.462958     0.788764    23.473845
H         4.478078    -0.188808    24.780119
C        -0.378294    -1.925509    24.976900
H         0.332444    -2.700827    24.819948
C        -1.695213    -2.276468    25.048304
H        -2.006446    -3.333381    25.030006
C        -2.708462    -1.349078    25.107458
H        -3.680978    -1.833915    25.269325
C        -2.372322     0.030576    25.206316
H        -3.143668     0.753818    25.298790
C         2.374568    -0.553048    24.945278
O         2.484251    -1.437141    25.801884
O         1.138331    -0.085410    24.491026
C        -0.080794    -0.575853    24.850262
C        -1.127416     0.448463    25.088570
C        -0.894772     1.937041    25.067112
O        -1.784098     2.707447    25.024078
O         0.277919     2.308755    25.086208
H         0.645359     1.486110    24.690083
21
Frame 2
C         3.634475     0.250868    24.512295
H         3.169815     1.292084    24.458302
H         4.085551    -0.028557    23.553646
H         4.326621     0.497287    25.340115
C        -0.518624    -1.862014    24.835438
H         0.225015    -2.657497    24.668295
C        -1.753196    -2.273132    25.203434
H        -2.020871    -3.325455    25.306927
C        -2.768245    -1.440971    25.573561
H        -3.758714    -1.788188    25.900995
C        -2.500165    -0.064718    25.332455
H        -3.259681     0.685873    25.675369
C         2.406404    -0.516660    25.029152
O         2.533351    -1.600894    25.594748
O         1.181671    -0.035816    24.527637
C        -0.146951    -0.474855    24.810387
C        -1.137337     0.478137    24.955948
C        -0.837629     1.918040    24.892288
O        -1.776223     2.709553    24.921419
O         0.345343     2.435569    25.040873
H         0.649475     1.536908    24.775202
21
Frame 3
C         3.444240     0.159330    24.479679
H         2.985727     0.697863    23.677805
H         4.442026    -0.232910    24.230001
H         3.516603     0.799828    25.330215
C        -0.366508    -1.861792    24.909781
H         0.407872    -2.602556    24.710209
C        -1.645539    -2.247219    25.324692
H        -1.805746    -3.275261    25.523857
C        -2.580701    -1.309788    25.590481
H        -3.552891    -1.590451    25.906178
C        -2.333035     0.000109    25.521650
H        -3.196218     0.682225    25.641663
C         2.279667    -0.694509    24.851944
O         2.410550    -1.695052    25.468597
O         1.161119    -0.076435    24.573990
C        -0.036664    -0.474715    24.927322
C        -1.035202     0.557652    25.115919
C        -0.925449     2.017823    24.986403
O        -1.904304     2.803001    24.833708
O         0.300874     2.394974    24.778572
H         0.605246     1.459017    24.774330
21
Frame 4
C         3.576925     0.079242    24.354002
H         3.853612    -0.302494    23.368006
H         4.434948    -0.078035    25.015396
H         3.234372     1.097150    24.273762
C        -0.428812    -1.847927    25.085930
H         0.351579    -2.560511    24.936354
C        -1.779495    -2.231333    25.506512
H        -2.022823    -3.364159    25.546093
C        -2.762933    -1.302059    25.675528
H        -3.757166    -1.685450    26.071899
C        -2.390001     0.030618    25.615955
H        -2.976629     0.883964    25.907602
C         2.430207    -0.646268    24.830095
O         2.529371    -1.695378    25.324009
O         1.179404    -0.066116    24.587173
C        -0.099511    -0.484693    24.916328
C        -1.176000     0.484086    25.133133
C        -0.898044     2.032960    24.889021
O        -1.866920     2.710006    25.002739
O         0.342216     2.522161    24.524458
H         0.772491     1.630382    24.553314
21
Frame 5
C         3.544985     0.130720    24.145489
H         4.391080    -0.552574    23.763577
H         3.771016     0.918976    24.860485
H         3.115359     0.710078    23.235415
C        -0.463762    -1.809108    25.198669
H         0.279035    -2.575667    24.880421
C        -1.670164    -2.169367    25.662140
H        -1.846052    -3.185091    25.853510
C        -2.743274    -1.164412    25.785164
H        -3.705818    -1.395601    26.107733
C        -2.480319     0.100679    25.482340
H        -3.272518     0.830218    25.607086
C         2.453784    -0.710793    24.777334
O         2.569084    -1.748108    25.314289
O         1.216431    -0.136371    24.611179
C        -0.118524    -0.472138    25.037357
C        -1.129036     0.493739    25.088846
C        -0.989671     1.936275    24.878086
O        -1.706989     2.871986    25.185635
O         0.185933     2.281525    24.351097
H         0.696256     1.438379    24.403227
21
Frame 6
C         3.319476     0.054409    23.989107
H         4.236060     0.176546    24.630939
H         2.903179     1.136468    23.945431
H         3.407684    -0.334053    22.967070
C        -0.454333    -1.794036    25.429974
H         0.316960    -2.516231    25.440689
C        -1.720219    -2.252850    25.779785
H        -2.047320    -3.309540    26.064590
C        -2.665918    -1.239550    25.803068
H        -3.749826    -1.510881    25.859802
C        -2.343345     0.135365    25.551018
H        -3.123440     0.972357    25.469528
C         2.250322    -0.726067    24.689873
O         2.555029    -1.685470    25.286404
O         1.099625    -0.157769    24.578096
C        -0.096589    -0.494580    25.149591
C        -1.057506     0.472279    25.122919
C        -0.812418     1.994716    24.877560
O        -1.558740     2.837653    25.248966
O         0.207718     2.416267    24.108284
H         0.679175     1.540695    24.129221
21
Frame 7
C         3.328225     0.019478    23.780769
H         3.788111     0.791322    24.360369
H         2.676213     0.430675    23.027817
H         4.175376    -0.579552    23.431423
C        -0.511368    -1.742219    25.400335
H         0.195081    -2.559566    25.200840
C        -1.779413    -2.164643    25.910463
H        -2.023365    -3.231630    26.074381
C        -2.722539    -1.169955    25.998081
H        -3.681933    -1.443100    26.402853
C        -2.422925     0.206123    25.682980
H        -3.153704     0.955648    25.820072
C         2.413532    -0.654772    24.652512
O         2.599679    -1.649119    25.305262
O         1.118415    -0.142220    24.586611
C        -0.112086    -0.475659    24.987041
C        -1.136647     0.518787    25.128325
C        -0.792500     1.951793    24.903713
O        -1.498362     2.849829    25.257814
O         0.198766     2.131590    24.039539
H         0.672479     1.251152    24.094296
21
Frame 8
C         3.348893    24.914272    23.722067
H         2.899687    25.870035    23.650909
H         3.453776    24.451418    22.772423
H         4.377857    24.883873    24.081785
C        -0.496906    23.082649    25.395981
H         0.112093    22.263281    25.107489
C        -1.743952    22.866003    25.955162
H        -1.958823    21.856457    26.067516
C        -2.635498    23.967398    26.213066
H        -3.626977    23.736835    26.565559
C        -2.286559    25.262188    25.824068
H        -3.111941    26.015144    26.084059
C         2.307534    24.204971    24.561146
O         2.619385    23.370007    25.351738
O         1.148217    24.720442    24.397629
C        -0.156224    24.475868    25.073311
C        -1.051861    25.588148    25.245857
C        -0.862693    27.022589    24.788631
O        -1.580640    27.920574    25.253515
O         0.116884    27.270668    23.936230
H         0.434490    26.333029    24.060066
21
Frame 9
C         3.306029    24.700441    23.710211
H         2.756446    25.099636    22.810631
H         3.833470    23.779070    23.307724
H         3.740218    25.493477    24.312084
C        -0.406608    23.197811    25.290142
H         0.255077    22.307787    25.154736
C        -1.580649    22.949030    26.064758
H        -1.853961    21.914900    26.498672
C        -2.497140    23.936829    26.422710
H        -3.473930    23.690525    26.942503
C        -2.221530    25.296194    26.054441
H        -3.110318    25.946213    26.124512
C         2.239573    24.269531    24.514448
O         2.364730    23.420666    25.383261
O         0.978118    24.797926    24.193880
C        -0.137085    24.541435    24.946539
C        -1.031490    25.619457    25.302248
C        -0.809675    26.951191    24.763262
O        -1.534736    27.830145    25.160442
O         0.160472    27.230721    23.941038
H         0.527947    26.286541    23.924854
21
Frame 10
C         3.292786    24.606684    23.498610
H         2.904319    24.121609    22.524794
H         4.354532    24.469677    23.805454
H         3.199372    25.759956    23.293861
C        -0.556030    23.132912    25.271282
H         0.041171    22.258776    25.003756
C        -1.626162    22.898352    26.210407
H        -1.900125    21.988716    26.679951
C        -2.325728    23.990185    26.676926
H        -3.057115    23.917309    27.497231
C        -2.075478    25.288315    26.103704
H        -2.593234    26.116428    26.496304
C         2.163673    24.188496    24.507639
O         2.385746    23.556166    25.513027
O         0.946349    24.719269    24.142090
C        -0.232312    24.440939    24.719431
C        -1.044414    25.590403    25.198839
C        -0.822840    27.041794    24.763096
O        -1.507379    27.952389    25.096056
O         0.164883    27.240204    24.009726
H         0.440104    26.274349    23.884142
21
Frame 11
C         3.104839    24.531166    23.365288
H         3.640364    23.654680    23.037016
H         3.994464    25.084641    23.798723
H         2.571068    24.999374    22.525084
C        -0.536997    23.218037    25.436995
H         0.071414    22.436142    24.977262
C        -1.617792    22.989176    26.190041
H        -1.766584    21.945555    26.422985
C        -2.335126    24.110586    26.689579
H        -3.144330    23.892052    27.413824
C        -2.012122    25.351425    26.179237
H        -2.589231    26.187279    26.694487
C         2.053033    24.191776    24.417126
O         2.415491    23.815527    25.466623
O         0.761714    24.485649    23.992958
C        -0.217313    24.495270    24.925571
C        -0.841607    25.603458    25.322323
C        -0.734470    26.954334    24.795860
O        -1.529555    27.822033    25.113125
O         0.285461    27.177610    23.939648
H         0.448664    26.178244    23.827906
21
Frame 12
C         3.003020    24.393723    23.076706
H         3.910017    23.753948    23.202877
H         3.036273    25.428133    22.897863
H         2.435481    24.022238    22.303144
C        -0.607879    23.116034    25.448149
H         0.086688    22.306198    25.307922
C        -1.668451    22.978172    26.352606
H        -1.810217    21.945881    26.829939
C        -2.408112    24.099474    26.859440
H        -3.162476    23.951588    27.625790
C        -2.046488    25.378414    26.245071
H        -2.640552    26.244509    26.292046
C         2.141815    24.337383    24.330275
O         2.465408    24.004330    25.437803
O         0.754576    24.558624    24.065720
C        -0.239832    24.377064    24.979237
C        -0.964783    25.489834    25.367710
C        -0.694882    26.949306    24.762909
O        -1.293400    27.945517    25.049417
O         0.320146    27.077534    23.908289
H         0.539295    26.080753    23.856861
21
Frame 13
C         2.803965    24.246981    23.015345
H         3.613959    24.905083    22.967474
H         2.083919    24.842270    22.438734
H         2.792672    23.258059    22.485485
C        -0.531105    23.155413    25.544758
H         0.107462    22.265255    25.322365
C        -1.579634    23.079235    26.476856
H        -1.794603    22.196779    27.035521
C        -2.411920    24.222466    26.820686
H        -3.267748    24.282211    27.535698
C        -2.043097    25.455406    26.213243
H        -2.556191    26.378220    26.569178
C         2.051164    24.126259    24.311525
O         2.658388    24.164600    25.372070
O         0.763719    24.412243    24.065937
C        -0.271647    24.300089    24.920130
C        -0.967009    25.528339    25.314829
C        -0.707839    26.964514    24.780842
O        -1.241592    27.973736    25.198727
O         0.249589    27.037560    23.848831
H         0.548082    26.056484    23.860197
21
Frame 14
C         2.869568    24.082592    22.932310
H         3.506909    24.954550    22.529013
H         2.038924    23.747746    22.249195
H         3.662587    23.301069    22.968235
C        -0.486197    23.230587    25.718102
H        -0.032510    22.376795    25.328449
C        -1.632552    23.108177    26.629145
H        -1.896045    22.095371    27.041592
C        -2.404146    24.257973    26.897337
H        -3.226548    24.251232    27.566566
C        -2.035335    25.446949    26.309271
H        -2.631873    26.315630    26.713240
C         2.026912    24.355923    24.138536
O         2.506007    24.123444    25.211700
O         0.667119    24.411200    24.021730
C        -0.203444    24.486965    25.075819
C        -0.877036    25.590065    25.409840
C        -0.644719    26.883623    24.760160
O        -1.160102    27.902771    25.246704
O         0.194030    26.951883    23.653662
H         0.427545    25.959471    23.774652
21
Frame 15
C         2.693736    24.063932    22.869331
H         2.127854    24.858999    22.359898
H         2.414891    23.114672    22.378998
H         3.797679    24.042530    22.949764
C        -0.589230    23.175339    25.565615
H         0.089695    22.325037    25.310982
C        -1.517917    23.111048    26.698702
H        -1.728374    22.095911    27.200880
C        -2.086933    24.286100    27.104332
H        -2.832100    24.237713    27.942514
C        -1.871157    25.479725    26.334724
H        -2.439783    26.317142    26.479977
C         1.996189    24.017010    24.226055
O         2.542169    24.108706    25.326574
O         0.707425    24.412430    24.052641
C        -0.288842    24.459381    25.010214
C        -1.018490    25.644375    25.313255
C        -0.662457    27.015665    24.699909
O        -1.029163    28.069334    25.146139
O        -0.042929    26.940899    23.630863
H         0.389618    26.021852    23.768536
21
Frame 16
C         2.701497    23.988781    22.957441
H         2.023904    24.117550    22.169594
H         2.946483    22.930672    22.921520
H         3.520916    24.706335    22.865589
C        -0.507711    23.247717    25.685606
H        -0.063249    22.336662    25.354492
C        -1.425458    23.196346    26.719669
H        -1.664772    22.302650    27.157722
C        -2.032701    24.423559    27.203913
H        -2.756015    24.464571    28.004929
C        -1.665841    25.643116    26.589060
H        -2.174984    26.587643    27.023203
C         1.918304    24.248764    24.200575
O         2.370065    23.886147    25.248518
O         0.579182    24.443110    23.900024
C        -0.275467    24.425747    24.949209
C        -0.853266    25.684807    25.363995
C        -0.622743    26.885662    24.696615
O        -1.080499    27.861813    25.107649
O        -0.145082    26.943197    23.451576
H         0.260014    26.009865    23.531788
21
Frame 17
C         2.797097    24.031523    22.866108
H         2.162425    23.665531    21.945372
H         3.791544    23.604403    22.932030
H         2.923621    25.110119    22.608412
C        -0.612975    23.223574    25.700684
H        -0.358322    22.271816    25.271736
C        -1.311706    23.239162    26.879745
H        -1.645496    22.287365    27.514565
C        -1.831820    24.503576    27.364002
H        -2.427659    24.406212    28.268297
C        -1.714967    25.754177    26.613049
H        -2.072504    26.687868    27.016850
C         1.881284    23.904732    24.113806
O         2.364609    23.775883    25.165573
O         0.563575    24.331577    23.884619
C        -0.291388    24.439898    25.008078
C        -0.838247    25.684454    25.402899
C        -0.718199    27.007263    24.608406
O        -1.105080    28.085552    25.065121
O        -0.219832    26.874844    23.436396
H         0.170549    25.954210    23.676653
21
Frame 18
C         2.470077    24.136045    22.759047
H         2.334979    23.107622    22.350250
H         3.626516    24.394623    22.793806
H         1.781431    24.880074    22.223169
C        -0.535109    23.274458    25.848110
H         0.012876    22.334930    25.630369
C        -1.261605    23.348234    27.045082
H        -1.371113    22.500210    27.667309
C        -1.784225    24.624645    27.411957
H        -2.332691    24.602749    28.370747
C        -1.587905    25.789309    26.531210
H        -2.156785    26.679169    26.695179
C         1.881449    24.019402    24.105341
O         2.385399    23.495701    25.092402
O         0.546812    24.383734    23.971310
C        -0.273196    24.397079    25.034317
C        -0.888860    25.662273    25.337374
C        -0.760049    26.963198    24.544355
O        -1.065766    27.995413    25.080717
O        -0.165212    26.843754    23.354458
H         0.267599    25.952808    23.626451
21
Frame 19
C         2.421199    24.117786    22.613434
H         2.860569    23.214249    22.177063
H         3.124130    24.957991    22.690878
H         1.690454    24.408323    21.852858
C        -0.327986    23.429033    26.109051
H         0.249160    22.577478    25.878052
C        -1.206450    23.452808    27.209303
H        -1.229334    22.484764    27.662144
C        -1.970144    24.634161    27.483778
H        -2.646538    24.776123    28.286839
C        -1.715107    25.732296    26.635849
H        -2.252490    26.709106    26.940018
C         1.741480    23.864195    23.901110
O         2.374995    23.361759    24.818155
O         0.512288    24.401505    24.023251
C        -0.212541    24.521461    25.196608
C        -0.830974    25.761234    25.474148
C        -0.609411    26.933716    24.600393
O        -1.048651    27.992762    24.865982
O        -0.156784    26.753963    23.356363
H         0.323247    25.870649    23.545536
21
Frame 20
C         2.231806    24.053801    22.413733
H         3.222629    23.663549    22.254812
H         2.190526    25.095932    22.274534
H         1.415117    23.704264    21.809492
C        -0.272322    23.417923    26.149284
H         0.184308    22.432716    25.916006
C        -1.198603    23.614733    27.280874
H        -1.373864    22.856026    28.107145
C        -1.820037    24.831030    27.505598
H        -2.400030    25.122688    28.423031
C        -1.740460    25.829927    26.532175
H        -2.120728    26.791740    26.672436
C         1.835902    23.755493    23.893673
O         2.535072    23.085758    24.637468
O         0.637728    24.300814    24.200640
C        -0.204713    24.526798    25.249180
C        -0.859911    25.709019    25.434065
C        -0.774832    26.957558    24.583450
O        -1.155206    28.094028    24.874640
O        -0.215751    26.804459    23.474548
H         0.207412    25.928190    23.779135
21
Frame 21
C         2.122256    23.825386    22.375385
H         3.170641    24.026154    22.157459
H         1.642665    24.785583    21.911522
H         1.943508    22.873360    21.907127
C        -0.199886    23.582029    26.160105
H         0.472787    22.741911    26.122570
C        -1.092832    23.649017    27.344172
H        -1.116996    22.905991    28.079737
C        -1.776950    24.838097    27.648102
H        -2.454889    24.965611    28.475534
C        -1.610523    25.858971    26.700108
H        -2.270228    26.738007    26.807444
C         1.724344    23.731077    23.827829
O         2.244627    22.989700    24.612804
O         0.679398    24.520306    24.177935
C        -0.050332    24.582283    25.303602
C        -0.761061    25.791267    25.513914
C        -0.776233    26.916277    24.515669
O        -1.323564    27.910975    24.840027
O        -0.115642    26.839809    23.308336
H         0.419152    26.013014    23.582182
21
Frame 22
C         2.048572    23.662472    22.415241
H         2.962982    24.357061    22.476082
H         1.172057    23.944641    21.805630
H         2.244442    22.618809    21.968634
C        -0.113614    23.590544    26.254574
H         0.463767    22.698202    26.117851
C        -0.813347    23.682823    27.396250
H        -0.752040    22.723759    27.999947
C        -1.645146    24.857397    27.635769
H        -2.185781    24.849939    28.596596
C        -1.526401    25.891323    26.696703
H        -2.156879    26.813372    26.890774
C         1.607752    23.553648    23.827040
O         2.201463    22.822151    24.528866
O         0.663814    24.462473    24.125883
C        -0.064402    24.583801    25.284935
C        -0.684800    25.899673    25.548683
C        -0.850870    27.124205    24.546116
O        -1.555388    28.122828    24.613010
O        -0.127375    26.865339    23.472288
H         0.341391    26.001694    23.769039
21
Frame 23
C         1.927797    23.590862    22.263374
H         2.039642    24.635202    21.945288
H         0.996227    23.375401    21.810301
H         2.832226    22.969065    22.083809
C        -0.105851    23.664764    26.327799
H         0.375897    22.710096    26.168945
C        -0.819699    23.897465    27.491165
H        -0.830619    23.172253    28.289623
C        -1.434085    25.130867    27.762058
H        -1.852402    25.199093    28.759462
C        -1.511919    26.040342    26.675133
H        -1.959574    26.955576    26.817421
C         1.690530    23.495207    23.736347
O         2.138732    22.723358    24.522984
O         0.687195    24.442541    24.103661
C        -0.129358    24.596169    25.226862
C        -0.763194    25.747805    25.452660
C        -0.914322    26.881496    24.453754
O        -1.566546    27.860664    24.842871
O        -0.057835    27.024048    23.440229
H         0.399067    26.145302    23.631508
21
Frame 24
C         1.876699    23.585222    22.222330
H         1.578034    24.538260    21.887548
H         1.485764    22.697819    21.713984
H         2.872509    23.597576    22.024309
C         0.026498    23.687658    26.396629
H         0.625956    22.802837    26.259163
C        -0.664070    23.836584    27.586231
H        -0.666295    23.137033    28.380835
C        -1.298846    25.054211    27.790735
H        -1.951764    25.304621    28.600061
C        -1.435813    26.069841    26.823156
H        -2.232104    26.904757    26.957350
C         1.414660    23.491199    23.714558
O         2.033080    22.792807    24.460987
O         0.450770    24.341911    24.091343
C        -0.023367    24.632114    25.343496
C        -0.709456    25.976944    25.587368
C        -0.796252    27.001537    24.487953
O        -1.567223    27.903156    24.486073
O        -0.052033    26.812342    23.445812
H         0.273370    25.900742    23.725975
21
Frame 25
C         1.558120    23.674221    22.290623
H         0.602505    24.177311    21.982830
H         1.434575    22.710314    21.859909
H         2.594876    24.153088    22.181583
C        -0.030260    23.619198    26.458113
H         0.517692    22.692110    26.248070
C        -0.614144    23.955574    27.723381
H        -0.672896    23.158052    28.552250
C        -1.161189    25.211744    27.860046
H        -1.567567    25.603527    28.775917
C        -1.284748    26.092527    26.769545
H        -1.853372    26.986742    26.968731
C         1.406821    23.506510    23.720661
O         2.095145    22.766479    24.404459
O         0.511503    24.372166    24.119080
C        -0.152253    24.577703    25.315664
C        -0.732944    25.893822    25.477287
C        -0.793995    26.894550    24.417500
O        -1.502458    27.862131    24.524410
O        -0.054487    26.752073    23.335875
H         0.310561    25.869226    23.615913
21
Frame 26
C         1.494667    23.533772    22.184345
H         0.430288    23.539400    21.800375
H         2.156125    22.641781    21.837511
H         1.819794    24.558029    21.800549
C         0.003143    23.708067    26.471577
H         0.375530    22.699736    26.265524
C        -0.576996    24.108059    27.752752
H        -0.622262    23.398626    28.528419
C        -1.120785    25.357397    27.919975
H        -1.563656    25.532295    28.938055
C        -1.194368    26.238255    26.824039
H        -1.592337    27.210743    27.000429
C         1.447871    23.443949    23.619007
O         2.089675    22.750120    24.386543
O         0.419069    24.269604    24.053419
C        -0.134004    24.648335    25.327488
C        -0.631110    25.878735    25.555742
C        -0.839617    26.822239    24.412287
O        -1.452201    27.869392    24.633659
O        -0.187689    26.628077    23.308109
H         0.214418    25.781548    23.637762
21
Frame 27
C         1.498229    23.287708    22.145290
H         1.011576    22.397415    21.703724
H         2.604671    23.176620    21.925037
H         1.264330    24.226021    21.730331
C         0.061065    23.719391    26.476860
H         0.464020    22.716711    26.400311
C        -0.348794    24.051361    27.688818
H        -0.171334    23.362869    28.553524
C        -0.971646    25.338600    27.895119
H        -1.424724    25.530918    28.804531
C        -1.148668    26.242350    26.821060
H        -1.870465    27.121180    27.029961
C         1.221863    23.344870    23.727339
O         2.037768    22.778700    24.415625
O         0.304648    24.249226    24.127773
C         0.015670    24.578123    25.390045
C        -0.601208    25.961706    25.576172
C        -0.867483    27.014996    24.426584
O        -1.400080    28.064980    24.556412
O        -0.427441    26.636236    23.230591
H         0.070481    25.845623    23.521864
21
Frame 28
C         1.282835    23.123165    22.270626
H         1.294066    22.077272    22.142200
H         2.083233    23.520073    21.824701
H         0.335262    23.460941    21.817102
C         0.033407    23.840252    26.339993
H         0.564105    22.935915    26.299404
C        -0.294438    24.185211    27.643356
H        -0.195997    23.500376    28.557947
C        -0.802700    25.440292    27.968525
H        -0.967717    25.758873    29.065485
C        -0.997110    26.292860    26.833099
H        -1.382578    27.230316    27.109930
C         1.393202    23.434917    23.725540
O         1.995399    22.748062    24.521069
O         0.354952    24.345707    24.031273
C        -0.137767    24.602779    25.273735
C        -0.681112    25.822599    25.494940
C        -0.880345    26.872740    24.448359
O        -1.221220    27.987959    24.749695
O        -0.638089    26.595837    23.115833
H        -0.081652    25.810131    23.240814
21
Frame 29
C         1.204220    22.950651    22.168106
H         2.044817    22.307098    21.987488
H         1.310510    23.965881    21.738514
H         0.264035    22.510410    21.847704
C         0.122472    23.783928    26.483624
H         0.322887    22.722363    26.282135
C        -0.329447    24.188198    27.781513
H        -0.248658    23.518744    28.509090
C        -0.776898    25.484200    27.978119
H        -0.941853    25.856834    28.953478
C        -0.875671    26.272957    26.826138
H        -1.101501    27.355690    26.993504
C         1.201618    23.251009    23.696463
O         2.115919    22.923458    24.382874
O         0.243955    24.145618    24.046984
C        -0.059894    24.666231    25.335217
C        -0.506570    25.918839    25.559378
C        -0.819123    27.036640    24.429827
O        -1.188361    28.230059    24.556620
O        -0.845570    26.447392    23.250429
H        -0.296848    25.702965    23.517771
21
Frame 30
C         0.985807    22.951002    22.278614
H         1.935779    23.156670    21.647060
H         0.172133    23.535252    21.703514
H         0.657368    21.891541    22.285080
C         0.039972    23.768421    26.435486
H         0.432987    22.774342    26.217300
C        -0.248999    24.264891    27.726385
H         0.034757    23.464367    28.560501
C        -0.592232    25.603794    27.957451
H        -0.930187    26.087357    28.863628
C        -0.796351    26.380161    26.873768
H        -1.209998    27.407501    27.116926
C         1.159342    23.444988    23.664078
O         2.117496    23.059849    24.346214
O         0.068832    24.153528    24.169327
C        -0.048405    24.639368    25.377609
C        -0.518812    25.984228    25.544140
C        -0.776013    26.845360    24.389055
O        -0.916698    28.001879    24.604324
O        -0.928910    26.294451    23.137856
H        -0.493504    25.455318    23.245914
21
Frame 31
C         0.798687    22.942459    22.251663
H         1.183190    23.699051    21.527002
H        -0.294692    22.810253    22.162899
H         1.359907    21.929604    22.019230
C         0.076978    23.669767    26.548935
H         0.468409    22.669682    26.402519
C        -0.068861    24.328945    27.870665
H         0.125918    23.841799    28.787014
C        -0.439078    25.626446    27.981007
H        -0.435370    26.073189    28.982754
C        -0.685470    26.434500    26.818333
H        -0.992673    27.401793    26.910631
C         1.081720    23.412415    23.701412
O         2.141652    23.280693    24.366476
O        -0.056950    24.031713    24.140411
C        -0.249550    24.511879    25.412634
C        -0.598105    25.893990    25.547846
C        -0.807386    26.830004    24.342434
O        -0.718546    28.027958    24.411995
O        -0.968212    26.332701    23.129894
H        -0.587335    25.515928    23.443745
21
Frame 32
C         0.831153    22.863422    22.287714
H         0.146518    23.505125    21.720406
H         0.503966    21.793337    22.341690
H         1.802958    22.885342    21.927431
C         0.085949    23.809874    26.597794
H         0.203664    22.724274    26.597061
C         0.030154    24.330627    27.835104
H         0.093930    23.789480    28.758270
C        -0.308364    25.734955    27.991865
H        -0.343201    26.119974    28.989000
C        -0.573974    26.509085    26.850183
H        -0.660176    27.678200    27.059620
C         0.911463    23.347126    23.688305
O         1.973020    23.432138    24.236286
O        -0.257380    23.877552    24.144964
C        -0.229539    24.550932    25.403912
C        -0.429618    25.922823    25.479841
C        -0.698066    26.803490    24.302797
O        -0.708873    28.027107    24.387699
O        -1.004940    26.177845    23.264124
H        -0.711876    25.316074    23.537376
21
Frame 33
C         0.613848    22.805326    22.389067
H        -0.414564    22.425650    22.309587
H         1.210637    21.933350    22.395882
H         0.881736    23.401489    21.544933
C        -0.104476    23.840704    26.675816
H         0.041673    22.788248    26.687033
C        -0.056112    24.378658    27.898346
H         0.192171    23.677673    28.799690
C         0.017766    25.794491    27.930613
H         0.100237    26.195210    28.991053
C        -0.303442    26.557816    26.715797
H        -0.511450    27.563126    26.874729
C         0.944092    23.511065    23.652164
O         2.027347    23.449604    24.181599
O        -0.244339    23.837296    24.269199
C        -0.221343    24.488186    25.450668
C        -0.456239    25.954142    25.455286
C        -0.759272    26.774929    24.294224
O        -0.705331    27.921734    24.459663
O        -1.092828    26.162661    23.095949
H        -0.858386    25.326515    23.459686
21
Frame 34
C         0.464473    22.642031    22.349087
H         0.122558    21.641312    22.467802
H         1.424454    22.834169    21.813026
H        -0.441348    23.243046    21.907089
C        -0.048254    23.756054    26.671255
H         0.117007    22.658194    26.550297
C         0.107791    24.411873    27.916901
H         0.292051    23.859653    28.798214
C         0.050093    25.790585    27.914803
H         0.160228    26.191696    28.865631
C        -0.154487    26.639324    26.766386
H        -0.216078    27.716351    26.755571
C         0.816589    23.285267    23.751976
O         1.914878    23.594460    24.160557
O        -0.280392    23.872719    24.251930
C        -0.294850    24.537556    25.486639
C        -0.356054    25.962063    25.519724
C        -0.688252    26.793270    24.250620
O        -0.775673    27.996075    24.191139
O        -1.048422    26.116837    23.300829
H        -0.695406    25.275595    23.552540
21
Frame 35
C         0.380947    22.587227    22.530132
H         1.270913    21.830624    22.462173
H         0.452760    23.155926    21.554924
H        -0.606198    22.173445    22.501316
C         0.159616    23.837988    26.664150
H         0.189623    22.743118    26.619541
C         0.319089    24.567284    27.892267
H         0.497433    24.010489    28.801010
C         0.058921    25.933533    27.931408
H         0.217963    26.626514    28.764866
C        -0.198669    26.644123    26.779013
H        -0.182073    27.830412    26.851370
C         0.676339    23.438560    23.655272
O         1.805995    23.439180    24.012558
O        -0.401969    23.800890    24.354582
C        -0.304385    24.559128    25.491640
C        -0.359553    25.921326    25.471558
C        -0.696812    26.697100    24.324657
O        -0.633068    27.912273    24.334717
O        -1.075202    26.136539    23.100464
H        -0.906853    25.284204    23.433262
21
Frame 36
C         0.076740    22.450388    22.510704
H         0.811467    22.566088    21.733866
H        -0.796269    23.009932    22.225830
H        -0.028370    21.364029    22.733471
C         0.120945    23.904762    26.653116
H         0.346808    22.851999    26.557627
C         0.392591    24.630463    27.887106
H         0.849159    24.086468    28.784794
C         0.263527    26.015915    27.879259
H         0.331084    26.706572    28.716984
C        -0.296847    26.599531    26.742950
H        -0.559829    27.589655    26.760433
C         0.667481    23.199471    23.704767
O         1.828060    23.435955    23.985727
O        -0.294846    23.787643    24.357307
C        -0.171508    24.554836    25.510042
C        -0.431324    26.010397    25.541565
C        -0.761623    26.830185    24.282463
O        -0.574329    27.998394    24.254066
O        -1.079047    26.076267    23.224733
H        -0.851274    25.215839    23.500793
21
Frame 37
C         0.004341    22.362236    22.566917
H        -0.040302    23.005169    21.764446
H        -0.943448    21.903259    22.857620
H         0.680539    21.541382    22.388462
C         0.362103    23.985556    26.675264
H         0.619662    22.891386    26.645033
C         0.395273    24.628223    27.942341
H         0.631243    24.167082    28.832840
C         0.194212    26.068459    27.940531
H         0.278391    26.550367    28.883379
C        -0.041639    26.658596    26.708500
H        -0.217693    27.797567    26.756264
C         0.548921    23.198317    23.627014
O         1.721781    23.247898    23.941792
O        -0.356157    23.930099    24.387121
C        -0.102954    24.652161    25.516102
C        -0.221411    25.980103    25.515394
C        -0.680126    26.788433    24.248848
O        -0.743229    27.997032    24.179943
O        -1.187499    26.049072    23.245960
H        -0.976824    25.208721    23.604719
21
Frame 38
C        24.897804    22.352543    22.669807
H        23.848431    22.819397    22.473125
H        24.564140    21.404703    23.008757
H        25.459442    22.350542    21.763313
C        25.270214    24.029791    26.657990
H        25.320976    22.984459    26.636276
C        25.522623    24.733654    27.773180
H        25.774324    24.175491    28.723822
C        25.424389    26.151043    27.823904
H        25.797043    26.679995    28.771162
C        24.975147    26.782597    26.661301
H        25.105267    27.909853    26.673500
C        25.592386    23.130482    23.796612
O        26.807806    22.957932    23.906914
O        24.681578    23.892357    24.391863
C        24.808989    24.642185    25.523151
C        24.726999    25.998665    25.459179
C        24.267582    26.791880    24.294899
O        24.192123    28.006304    24.285336
O        23.748856    26.115553    23.236197
H        23.907270    25.275537    23.607035
21
Frame 39
C        24.782866    22.209553    22.551224
H        23.733303    22.039654    22.793270
H        25.529255    21.351965    22.371292
H        24.821266    22.921637    21.640553
C        25.411663    24.029610    26.674185
H        25.665226    22.950514    26.724895
C        25.717165    24.804321    27.798363
H        26.214455    24.325993    28.656170
C        25.654840    26.162653    27.778801
H        25.903139    26.770647    28.645447
C        25.022963    26.808041    26.637421
H        24.745749    27.769581    26.615789
C        25.440084    22.965504    23.769617
O        26.608917    22.899912    24.206141
O        24.598848    23.932167    24.367477
C        24.990618    24.593063    25.455778
C        24.756069    26.068327    25.461599
C        24.109060    26.869640    24.269306
O        24.098818    28.080824    24.215214
O        23.773716    26.147345    23.267284
H        23.964767    25.288364    23.608852
21
Frame 40
C        24.782705    22.335400    22.728333
H        24.525478    21.288685    22.936592
H        25.614330    22.196877    21.964218
H        24.003201    22.975029    22.247913
C        25.561275    24.102036    26.588280
H        25.807346    23.004436    26.567936
C        25.916262    24.878246    27.686403
H        26.368641    24.344582    28.450855
C        25.697395    26.218220    27.739981
H        26.018160    26.813765    28.565561
C        25.155281    26.838593    26.596956
H        24.945873    27.998463    26.687668
C        25.373087    22.982021    23.874866
O        26.413490    22.537498    24.239285
O        24.536694    23.981361    24.362511
C        24.926474    24.754929    25.457258
C        24.777863    26.135824    25.403145
C        24.133615    26.793718    24.259518
O        24.019939    28.013765    24.324654
O        23.735464    26.097805    23.174944
H        24.015823    25.324722    23.650177
21
Frame 41
C        24.504087    22.361900    22.648251
H        24.851765    21.352375    22.238520
H        24.673717    23.207214    22.052704
H        23.464087    22.312613    23.010674
C        25.616331    24.107037    26.695122
H        25.780375    23.013042    26.724728
C        26.041046    25.004353    27.736012
H        26.477680    24.637835    28.726830
C        25.829926    26.353115    27.581127
H        26.232424    27.115921    28.348335
C        25.183521    26.873219    26.520088
H        25.249865    27.926619    26.472769
C        25.357122    22.834986    23.878162
O        26.367657    22.300940    24.290964
O        24.714281    23.929276    24.343493
C        24.957502    24.697392    25.503119
C        24.753109    26.119251    25.366673
C        24.114162    26.866167    24.270279
O        23.867088    28.086998    24.270851
O        23.760759    26.122128    23.292120
H        24.110943    25.288147    23.591267
21
Frame 42
C        24.427979    22.284786    22.643467
H        25.054455    22.249792    21.803890
H        23.567430    23.032875    22.443808
H        23.912510    21.327477    22.867899
C        25.799208    24.259270    26.532188
H        25.952145    23.171726    26.584988
C        26.085907    25.036236    27.721039
H        26.579969    24.699991    28.599550
C        25.914551    26.420210    27.658417
H        26.156332    26.936787    28.488234
C        25.298275    27.001257    26.540842
H        24.818003    27.960857    26.518127
C        25.149939    22.786524    23.843813
O        26.128304    22.248020    24.375574
O        24.654469    24.000332    24.469015
C        25.220652    24.797283    25.396292
C        24.924671    26.230789    25.434464
C        24.096371    26.781805    24.270027
O        23.838263    27.903864    24.284164
O        23.711376    26.017750    23.206785
H        24.108973    25.213736    23.553026
21
Frame 43
C        24.300915    22.378080    22.917934
H        24.202478    23.267712    22.203815
H        23.341513    22.289001    23.442774
H        24.687210    21.461529    22.427994
C        25.902851    24.244820    26.581818
H        26.203121    23.244720    26.572598
C        26.328655    25.043514    27.543116
H        26.848625    24.591469    28.389534
C        25.971996    26.472082    27.470953
H        26.207031    27.197531    28.322525
C        25.216864    26.919559    26.447548
H        24.962833    28.059065    26.405220
C        25.148022    22.790783    24.025347
O        26.017551    22.030407    24.397400
O        24.773092    23.991329    24.389116
C        25.165165    24.762335    25.492727
C        24.808826    26.074100    25.380524
C        24.095688    26.839827    24.255207
O        23.807274    28.028410    24.248470
O        23.692236    26.122982    23.219513
H        24.112444    25.302431    23.492260
21
Frame 44
C        24.111908    22.165237    22.893126
H        23.222464    22.848087    22.840763
H        23.825859    21.179411    23.161434
H        24.600910    22.108305    21.887846
C        26.011240    24.388172    26.423084
H        26.143646    23.280622    26.540245
C        26.481445    25.193205    27.501566
H        27.060555    24.666813    28.357674
C        26.079483    26.516371    27.567295
H        26.459026    27.158937    28.368967
C        25.311275    27.031012    26.455450
H        25.086424    28.049974    26.411777
C        25.020161    22.632305    24.005802
O        25.939579    22.042646    24.524921
O        24.739286    23.948006    24.322495
C        25.140194    24.784401    25.412487
C        24.861956    26.136971    25.403004
C        24.083597    26.846926    24.316359
O        23.808062    28.050177    24.248697
O        23.682661    26.060551    23.271734
H        24.146547    25.240620    23.521082
21
Frame 45
C        24.080898    22.103313    22.986504
H        23.226212    21.723478    23.476624
H        24.587538    21.139343    22.565132
H        23.913612    22.791603    22.201439
C        26.046204    24.336445    26.393642
H        26.360985    23.324707    26.473768
C        26.530714    25.210466    27.468567
H        27.087107    24.765858    28.276537
C        26.197798    26.506948    27.408653
H        26.293142    27.184551    28.211590
C        25.396416    27.052719    26.323702
H        25.011517    28.108454    26.361721
C        24.945822    22.677000    24.101131
O        25.792696    21.984995    24.570580
O        24.695108    23.974970    24.475346
C        25.315472    24.794767    25.314882
C        24.987900    26.224939    25.316513
C        24.029940    26.846666    24.265667
O        23.824625    28.035126    24.349739
O        23.541899    26.078968    23.274059
H        23.947311    25.229443    23.484329
21
Frame 46
C        23.962118    22.226635    23.140297
H        23.661041    21.180670    23.371523
H        24.459211    22.341394    22.207302
H        23.026203    22.823679    23.313444
C        25.992725    24.283379    26.488001
H        26.176456    23.221445    26.623180
C        26.584757    25.155907    27.358086
H        27.251413    24.744436    28.114321
C        26.407215    26.572277    27.201616
H        26.924141    27.388784    27.783335
C        25.541599    27.043110    26.278799
H        25.398487    28.108395    26.433125
C        24.954056    22.684780    24.181612
O        25.767107    21.956631    24.634327
O        24.797096    23.942108    24.407978
C        25.203989    24.817432    25.405201
C        24.885027    26.180971    25.285929
C        24.038898    26.834009    24.255928
O        23.724899    28.017704    24.205561
O        23.505699    26.072395    23.382347
H        24.008060    25.272486    23.638906
21
Frame 47
C        23.850746    22.178848    23.115784
H        24.356165    21.477440    22.433266
H        23.410566    23.034279    22.603836
H        22.987785    21.793404    23.700335
C        26.159246    24.403467    26.378986
H        26.400480    23.318928    26.456718
C        26.721661    25.305237    27.353199
H        27.337440    25.056059    28.232801
C        26.527489    26.675642    27.297707
H        27.069885    27.217907    28.018970
C        25.680483    27.089617    26.179045
H        25.716305    28.128124    25.930510
C        24.791759    22.599401    24.137943
O        25.719870    22.002686    24.657887
O        24.529791    23.888548    24.567354
C        25.198093    24.837528    25.431507
C        25.000208    26.230255    25.270847
C        24.061861    26.759012    24.206593
O        23.798985    27.893866    24.235703
O        23.416962    25.982681    23.356371
H        23.833639    25.221840    23.806156
21
Frame 48
C        23.807236    22.175360    23.234846
H        24.117287    22.422234    22.207409
H        22.866047    22.795687    23.457582
H        23.689272    21.144087    23.371548
C        26.141718    24.369316    26.509617
H        26.320627    23.355900    26.679800
C        26.819555    25.265781    27.195663
H        27.636023    24.945244    27.782001
C        26.581364    26.641123    26.966091
H        27.197664    27.366724    27.499111
C        25.614822    27.102333    26.060009
H        25.365240    28.232418    26.074284
C        24.695938    22.654421    24.341805
O        25.676527    22.016747    24.563465
O        24.540657    23.911499    24.721344
C        25.239193    24.733013    25.443851
C        24.949129    26.205242    25.212385
C        24.000504    26.803980    24.251377
O        23.889252    27.982285    24.163408
O        23.471395    25.946404    23.503103
H        23.831722    25.100723    23.841944
21
Frame 49
C        23.647747    22.160013    23.432472
H        23.030548    22.922953    22.930950
H        23.102562    21.679487    24.183914
H        23.919994    21.257906    22.769569
C        26.058048    24.423859    26.492153
H        26.290045    23.351871    26.436979
C        26.949921    25.228540    27.143347
H        27.760071    24.777630    27.798700
C        26.830120    26.605684    26.973829
H        27.547522    27.271568    27.532236
C        25.825794    27.171921    26.043303
H        25.842932    28.186317    25.916491
C        24.798912    22.692739    24.285084
O        25.734186    22.030254    24.611609
O        24.431553    23.881519    24.733028
C        25.125511    24.857758    25.478230
C        24.981365    26.198328    25.246820
C        23.946808    26.746561    24.268250
O        23.898853    27.961174    24.033947
O        23.267593    25.926531    23.423529
H        23.678923    25.220863    23.951752
21
Frame 50
C        23.517899    22.024000    23.629320
H        22.522713    22.476294    23.828516
H        23.540569    21.051970    24.153242
H        23.866020    22.148136    22.582769
C        26.191257    24.365236    26.399895
H        26.120520    23.306004    26.581335
C        26.892754    25.323526    27.164104
H        27.619339    24.971895    27.877781
C        26.752171    26.657856    26.883854
H        27.398577    27.378170    27.258636
C        25.915945    27.076796    25.775120
H        25.910694    28.189383    25.458220
C        24.598120    22.592581    24.450571
O        25.750830    22.273008    24.476616
O        24.334599    23.877472    24.778347
C        25.191381    24.766449    25.447525
C        25.117294    26.153776    25.113377
C        24.098343    26.751194    24.203108
O        23.952045    27.951168    24.046354
O        23.252811    25.980618    23.705296
H        23.537544    25.113928    24.068062
21
Frame 51
C        23.459042    21.936646    23.938545
H        22.893723    21.749887    24.890675
H        23.796930    21.015310    23.389786
H        22.815102    22.299784    23.207699
C        26.026474    24.417068    26.523479
H        26.075365    23.365536    26.725084
C        26.936905    25.277281    27.119493
H        27.609650    24.823439    27.830870
C        26.981655    26.636641    26.645790
H        27.621670    27.476486    27.081964
C        25.964108    27.095766    25.796165
H        25.964130    28.158197    25.471956
C        24.684732    22.700417    24.344337
O        25.740593    22.150429    24.291122
O        24.377211    23.886848    24.897306
C        25.126715    24.829441    25.466501
C        25.073593    26.286772    25.194897
C        24.080025    26.784590    24.188509
O        24.076485    27.924089    23.902546
O        23.076113    25.970806    23.743507
H        23.363028    25.112688    24.145519
21
Frame 52
C        23.341190    21.872894    24.184448
H        23.368484    21.018051    24.768965
H        23.468960    21.509760    23.222076
H        22.448723    22.545845    24.443203
C        26.118679    24.351881    26.370146
H        26.000788    23.255367    26.601482
C        27.064262    25.221878    27.010344
H        27.823975    24.996880    27.810570
C        26.997387    26.611702    26.647882
H        27.659348    27.298542    27.117882
C        26.052534    27.073393    25.732407
H        26.099998    28.115931    25.755978
C        24.596466    22.724791    24.488762
O        25.775278    22.455223    24.250778
O        24.223705    23.909145    25.000307
C        25.176065    24.845713    25.460680
C        25.065897    26.147816    25.147121
C        24.054756    26.745138    24.176769
O        24.132679    27.898235    23.681992
O        23.031294    25.956394    23.823868
H        23.378275    25.109695    24.244144
21
Frame 53
C        23.357109    21.844070    24.341488
H        23.801357    20.850027    24.443361
H        22.762928    22.140856    23.470665
H        22.664106    21.934570    25.114262
C        26.195492    24.369509    26.436943
H        26.237852    23.437063    26.890491
C        27.180737    25.302254    26.870884
H        27.842644    25.127762    27.662144
C        27.041752    26.673231    26.548733
H        27.693909    27.414478    27.003246
C        26.033714    27.017002    25.607386
H        25.995062    28.064159    25.194824
C        24.487896    22.788038    24.506310
O        25.603029    22.483425    24.054499
O        24.145872    23.969994    25.133905
C        25.113394    24.794060    25.593061
C        25.128290    26.132946    25.161400
C        24.100410    26.710474    24.152866
O        24.219072    27.785643    23.641884
O        23.051575    25.936062    23.913233
H        23.482925    25.144083    24.392260
21
Frame 54
C        23.236387    21.882969    24.446472
H        23.150522    21.188128    23.584288
H        22.276485    22.402893    24.301449
H        23.216755    21.287567    25.371475
C        26.146944    24.524689    26.562479
H        26.099373    23.573521    27.054319
C        27.142572    25.368605    26.884832
H        27.855629    24.909218    27.607420
C        27.260139    26.647694    26.349756
H        27.992104    27.420784    26.770695
C        26.209230    27.038353    25.492455
H        26.159819    28.117887    25.241207
C        24.492771    22.745382    24.545801
O        25.497200    22.498865    23.855331
O        24.220074    23.924417    25.343803
C        25.184635    24.827049    25.639072
C        25.096596    26.179382    25.123522
C        24.055813    26.662262    24.149670
O        24.198528    27.708767    23.603016
O        22.994965    25.871983    23.947199
H        23.237259    25.012047    24.445898
21
Frame 55
C        23.066891    21.967287    24.544884
H        22.762316    22.001717    23.508774
H        22.479042    22.367527    25.365774
H        23.554832    20.968397    24.874353
C        26.266186    24.425974    26.548756
H        26.289261    23.380243    27.058859
C        27.196226    25.422974    26.885380
H        27.872303    25.251339    27.712086
C        27.260542    26.615583    26.249153
H        27.987368    27.263124    26.527664
C        26.257971    26.954336    25.324352
H        26.191084    27.910402    24.896032
C        24.389732    22.890919    24.611122
O        25.431614    22.757660    23.968521
O        24.185057    23.959522    25.431395
C        25.282850    24.797480    25.550941
C        25.188219    26.019207    25.000313
C        24.116762    26.528191    24.090244
O        24.059231    27.649992    23.572409
O        23.039143    25.804657    24.056877
H        23.572002    25.137344    24.624912
21
Frame 56
C        23.179733    22.109158    24.583611
H        22.273205    22.680712    24.275803
H        22.770885    21.761816    25.510319
H        23.261456    21.309475    23.960188
C        26.251337    24.501797    26.587934
H        26.278202    23.643705    27.149689
C        27.382452    25.430500    26.736855
H        28.242325    25.187586    27.367914
C        27.377529    26.614307    26.080713
H        28.338341    27.258013    26.006798
C        26.303211    26.969429    25.310848
H        26.365726    27.831398    24.557518
C        24.384775    22.874048    24.682276
O        25.258581    22.626011    23.888988
O        24.181280    23.959583    25.548920
C        25.189199    24.863852    25.788437
C        25.140429    26.125843    25.090191
C        24.026155    26.501816    24.101419
O        24.152027    27.525249    23.489130
O        22.953547    25.753452    24.048542
H        23.374865    25.094719    24.719011
21
Frame 57
C        22.947708    22.063908    24.673317
H        22.281677    22.705147    25.181385
H        23.369600    21.198093    25.148476
H        22.695999    21.872181    23.625046
C        26.323914    24.510468    26.514896
H        26.496292    23.463964    26.952810
C        27.425596    25.397400    26.611969
H        28.373482    24.973824    27.024805
C        27.379154    26.654633    25.963264
H        28.198803    27.325752    26.009747
C        26.327663    26.978909    25.193638
H        26.315889    27.939453    24.655842
C        24.245872    22.951910    24.700987
O        25.283836    22.736914    24.076389
O        24.211884    23.912807    25.670059
C        25.222828    24.819527    25.714760
C        25.155401    26.126949    24.987453
C        24.074678    26.551552    24.169771
O        24.165428    27.445831    23.371965
O        22.975348    25.736513    24.187109
H        23.300690    25.032103    24.861853
21
Frame 58
C        22.998016    22.194630    24.804441
H        22.560015    22.086937    25.757889
H        23.066502    21.127106    24.615898
H        22.193344    22.618603    24.126938
C        26.399490    24.504707    26.500481
H        26.415630    23.514462    26.882334
C        27.520144    25.362667    26.574842
H        28.455711    25.149525    27.034700
C        27.417078    26.617798    25.892773
H        28.326359    27.151051    25.972664
C        26.311604    26.929482    25.087900
H        26.145782    27.832924    24.503010
C        24.292517    22.861864    24.906441
O        25.182665    22.678118    24.133984
O        24.206978    24.009167    25.560352
C        25.333368    24.919575    25.634729
C        25.242350    26.028896    24.941677
C        24.031548    26.448738    24.128277
O        24.091450    27.392252    23.339500
O        22.864891    25.884581    24.291752
H        23.198620    25.160698    24.945026
21
Frame 59
C        22.954391    22.183842    24.987152
H        23.457447    21.648462    25.882624
H        22.847351    21.609509    24.080223
H        22.176735    22.815937    25.283424
C        26.359112    24.611744    26.375572
H        26.395273    23.746353    26.999859
C        27.509144    25.387226    26.522701
H        28.365984    25.024708    27.160412
C        27.484331    26.578320    25.715883
H        28.405479    27.213572    25.602943
C        26.397001    26.957241    24.949331
H        26.432217    27.773161    24.183823
C        24.235939    22.888477    24.792881
O        25.155846    22.363770    24.209311
O        24.267206    23.971403    25.566675
C        25.195335    24.884605    25.726892
C        25.216469    26.140255    24.961884
C        24.071238    26.566801    24.156151
O        24.049366    27.396734    23.296965
O        22.907852    25.951555    24.431156
H        23.204456    25.330698    25.184742
21
Frame 60
C        22.821865    22.074585     0.117815
H        23.076118    21.089249     0.235778
H        22.304735    22.018524    -0.844931
H        22.103935    22.289354     0.943422
C        26.454088    24.576176     1.254948
H        26.438684    23.564398     1.731819
C        27.599335    25.422564     1.384504
H        28.451672    25.111347     2.018637
C        27.563465    26.589249     0.623958
H        28.299713    27.342968     0.709513
C        26.388178    26.955996    -0.120370
H        26.298353    27.950602    -0.534869
C        24.220686    22.772768     0.074667
O        25.164570    22.476234    -0.581678
O        24.175289    23.956549     0.571846
C        25.331678    24.832767     0.537660
C        25.269239    26.050718    -0.171183
C        24.038141    26.538923    -0.908042
O        24.092037    27.495049    -1.679416
O        22.827229    26.069098    -0.516309
H        23.092630    25.404713     0.210387
21
Frame 61
C        22.928688    22.166845     0.311179
H        23.058470    21.315296    -0.346537
H        22.100399    22.813953    -0.009973
H        22.841433    21.861212     1.362775
C        26.451342    24.442413     1.235700
H        26.560127    23.524948     1.741215
C        27.605600    25.272221     1.118554
H        28.485392    24.963037     1.633843
C        27.530838    26.496845     0.450435
H        28.447550    27.164917     0.450417
C        26.329536    26.964445    -0.156567
H        26.232565    28.028049    -0.470891
C        24.208603    22.801275     0.055910
O        25.141434    22.210436    -0.392933
O        24.230215    24.086880     0.572041
C        25.257301    24.989365     0.575122
C        25.237614    26.153152    -0.092626
C        24.018841    26.656475    -0.842598
O        24.053690    27.554592    -1.703852
O        22.864733    26.027863    -0.578222
H        23.258381    25.418852     0.134816
21
Frame 62
C        22.836422    22.171509     0.496237
H        22.366425    21.921730    -0.548271
H        22.202980    22.966869     0.834463
H        22.902378    21.286840     1.099987
C        26.510351    24.452513     1.025181
H        26.442583    23.492924     1.620118
C        27.681368    25.267982     0.981315
H        28.559662    24.951145     1.601651
C        27.679230    26.518215     0.351069
H        28.455393    27.263842     0.392588
C        26.464100    26.920147    -0.213024
H        26.657890    27.806471    -0.727303
C        24.210957    22.812397     0.267041
O        25.168068    22.183130    -0.172484
O        24.139605    24.137302     0.485540
C        25.287817    24.894583     0.528109
C        25.228045    26.163380    -0.212093
C        23.937265    26.693487    -0.824312
O        23.986435    27.602757    -1.528203
O        22.814226    26.002182    -0.678944
H        23.098269    25.258423    -0.047788
21
Frame 63
C        22.686737    22.187788     0.597138
H        22.015181    22.617453    -0.040687
H        22.448982    22.461082     1.696335
H        22.534500    21.081259     0.557303
C        26.589104    24.459900     0.982568
H        26.630600    23.569775     1.550146
C        27.687561    25.321896     0.877273
H        28.670174    25.195122     1.291851
C        27.642300    26.537752     0.209470
H        28.509912    27.148466     0.161228
C        26.394312    26.897827    -0.360470
H        26.309635    27.951452    -0.656389
C        24.145374    22.694017     0.417963
O        25.105484    22.025888     0.034011
O        24.226479    24.111490     0.594820
C        25.310947    24.846527     0.350589
C        25.259552    26.095850    -0.351672
C        23.996181    26.741966    -0.919485
O        23.933008    27.837179    -1.372344
O        22.934727    26.003223    -0.710306
H        23.587566    25.410540    -0.219866
21
Frame 64
C        22.723284    22.326557     0.777395
H        21.966442    23.146742     0.886591
H        22.984493    22.030663     1.761408
H        22.523252    21.461246     0.152637
C        26.640762    24.498344     0.912358
H        26.644665    23.451002     1.226143
C        27.711840    25.299522     0.758761
H        28.690022    24.997046     1.122226
C        27.706398    26.481575    -0.005002
H        28.696032    27.079758    -0.144194
C        26.436840    26.926193    -0.424302
H        26.449825    27.928333    -0.967853
C        24.134129    22.762901     0.448245
O        24.974787    21.846848     0.280907
O        24.250288    24.181362     0.388256
C        25.382101    24.948158     0.313370
C        25.213747    26.152740    -0.228384
C        23.902504    26.682940    -0.769541
O        23.964186    27.817213    -1.253855
O        22.875591    25.928209    -0.807695
H        23.229836    25.061090    -0.428222
21
Frame 65
C        22.608898    22.457508     0.928930
H        21.939873    23.185696     1.476554
H        22.711334    21.572657     1.513567
H        22.046375    22.123060     0.073154
C        26.732447    24.350416     0.647959
H        26.768816    23.396013     1.236993
C        27.822174    25.196543     0.524296
H        28.776846    24.703365     0.838206
C        27.730295    26.509140     0.051778
H        28.556210    27.091167    -0.136720
C        26.406509    26.898792    -0.414019
H        26.409103    27.794861    -0.920383
C        24.154789    22.819841     0.658656
O        25.074799    21.972927     0.441800
O        24.185673    24.142399     0.504940
C        25.368345    24.771114     0.268062
C        25.286930    26.137703    -0.405960
C        23.986565    26.742191    -0.908098
O        23.749979    27.895550    -1.219868
O        22.899673    25.915213    -0.796544
H        23.508736    25.200596    -0.456353
21
Frame 66
C        22.630358    22.541084     1.075356
H        22.458424    22.690269     2.114268
H        22.589966    21.373817     0.923254
H        21.933678    23.038410     0.350154
C        26.667727    24.381416     0.610024
H        26.702394    23.343197     0.901467
C        27.860357    25.241352     0.367025
H        28.834503    24.885620     0.501129
C        27.696608    26.515665    -0.213882
H        28.544834    27.194330    -0.506374
C        26.439745    26.994555    -0.517406
H        26.340883    28.033064    -1.019122
C        24.076904    22.747124     0.700633
O        24.916544    21.836895     0.645877
O        24.271179    24.170225     0.446741
C        25.375614    24.847986     0.225827
C        25.306492    26.130207    -0.284664
C        23.909813    26.679180    -0.711569
O        23.931177    27.838173    -1.233483
O        22.894115    25.901243    -0.799717
H        23.268061    25.031601    -0.494245
21
Frame 67
C        22.640619    22.564840     1.166060
H        22.583332    22.093914     2.210903
H        22.312355    21.903193     0.355220
H        21.999966    23.500294     1.169678
C        26.746389    24.329489     0.550479
H        26.862850    23.403521     1.015766
C        27.893543    25.149254     0.286227
H        28.972549    24.775635     0.497210
C        27.700294    26.455025    -0.330090
H        28.503876    27.146894    -0.647710
C        26.383125    26.874372    -0.624855
H        26.270348    27.874441    -1.011424
C        24.126026    22.841597     0.777582
O        24.863396    21.887894     0.778832
O        24.291473    24.136478     0.491832
C        25.445469    24.851162     0.165125
C        25.293472    26.103626    -0.424592
C        23.972519    26.735607    -0.773771
O        23.803314    27.886581    -1.241977
O        22.858326    25.945738    -0.654860
H        23.452763    25.212223    -0.338757
21
Frame 68
C        22.626320    22.627457     1.214450
H        22.472906    21.614521     1.613723
H        22.004944    22.696245     0.347765
H        22.311008    23.441418     1.873242
C        26.682167    24.369583     0.421008
H        26.815750    23.444092     1.000307
C        27.882927    25.068153     0.172654
H        28.791336    24.656076     0.553646
C        27.785629    26.371330    -0.441065
H        28.619999    26.976105    -0.598177
C        26.463779    26.777950    -0.757341
H        26.405357    27.710321    -1.270431
C        24.084938    22.835548     0.943674
O        25.053581    22.034210     0.860093
O        24.223700    24.177921     0.532609
C        25.423775    24.828674     0.173765
C        25.237572    26.077690    -0.520977
C        23.931507    26.705776    -0.847593
O        23.800827    27.826488    -1.208954
O        22.828773    26.015465    -0.494280
H        23.089260    25.131088    -0.113261
21
Frame 69
C        22.676220    22.578714     1.293098
H        22.414749    21.602322     1.144528
H        21.980227    23.386106     0.960018
H        22.826803    22.602276     2.329777
C        26.729630    24.371624     0.493479
H        26.950815    23.463985     1.039458
C        27.850929    25.099606     0.040942
H        28.865240    24.818600     0.292931
C        27.665085    26.253416    -0.750693
H        28.674564    26.717209    -1.062226
C        26.378159    26.781290    -0.940538
H        26.214083    27.805216    -1.406464
C        24.113358    22.859386     0.888448
O        24.878155    21.922094     1.028472
O        24.329723    24.148071     0.547203
C        25.417774    24.897240     0.268325
C        25.298443    26.117781    -0.359232
C        23.914204    26.786354    -0.714054
O        23.900690    27.781275    -1.341971
O        22.804060    26.131756    -0.429821
H        23.384327    25.407555    -0.053563
21
Frame 70
C        22.590706    22.584427     1.360675
H        22.173031    21.980665     0.516359
H        22.001837    23.423681     1.605330
H        22.720671    21.987598     2.293051
C        26.739052    24.329254     0.403223
H        26.959000    23.499565     1.060277
C        27.850563    24.983086    -0.137794
H        28.897913    24.589699     0.099373
C        27.707026    26.205750    -0.799205
H        28.542404    26.778320    -0.977139
C        26.498768    26.791309    -0.986311
H        26.504189    27.796139    -1.351144
C        24.097956    22.953045     1.141043
O        24.941105    22.076147     0.969957
O        24.324806    24.217951     0.786913
C        25.410629    24.811611     0.186943
C        25.199270    26.021280    -0.544845
C        23.901031    26.722166    -0.843149
O        23.770588    27.796757    -1.405227
O        22.919161    26.168278    -0.234454
H        23.410152    25.460171     0.258100
21
Frame 71
C        22.707150    22.844719     1.489800
H        21.825813    22.910326     0.744284
H        22.595005    23.513058     2.412981
H        22.696192    21.785980     1.905105
C        26.720432    24.343918     0.382476
H        26.944096    23.409864     0.977716
C        27.868107    24.990023    -0.202835
H        28.809959    24.609053     0.016424
C        27.770948    26.082382    -0.936271
H        28.666878    26.653194    -1.361459
C        26.402977    26.594240    -1.118003
H        26.136026    27.457220    -1.755467
C        24.099205    22.958252     1.018767
O        24.966175    22.094494     0.965953
O        24.293663    24.225481     0.771632
C        25.457130    24.875423     0.251657
C        25.222633    26.120283    -0.506427
C        23.899532    26.742640    -0.671255
O        23.832714    27.576410    -1.479760
O        22.763500    26.226128    -0.076557
H        23.291965    25.559055     0.413373
21
Frame 72
C        22.771015    22.876959     1.697394
H        22.089626    23.649628     1.312540
H        22.907494    22.944416     2.842908
H        22.540306    21.818676     1.418269
C        26.793301    24.365688     0.493145
H        27.052101    23.537136     1.100736
C        27.855967    24.938364    -0.238724
H        28.825304    24.360258    -0.195829
C        27.602047    26.060822    -1.044782
H        28.343012    26.481468    -1.730205
C        26.368839    26.610014    -1.205817
H        26.113190    27.504066    -1.797894
C        24.118805    22.990911     1.170290
O        24.740200    22.038698     0.894007
O        24.420012    24.265793     0.791942
C        25.476063    24.913208     0.243379
C        25.212879    26.040745    -0.553097
C        23.898476    26.663904    -0.790031
O        23.666073    27.595806    -1.577642
O        23.040602    26.291920     0.020677
H        23.527321    25.583124     0.471591
21
Frame 73
C        22.753256    22.859507     2.002235
H        22.220806    23.776566     2.085484
H        22.987648    22.583826     2.954770
H        22.034840    22.196869     1.532511
C        26.739155    24.363598     0.311199
H        26.870680    23.426447     0.843941
C        27.924438    24.949133    -0.287940
H        28.904404    24.443031    -0.158981
C        27.672998    26.076229    -1.152181
H        28.609879    26.426037    -1.576550
C        26.420280    26.540434    -1.365464
H        26.238756    27.332170    -2.143699
C        24.125708    23.068933     1.191548
O        24.738815    22.184687     0.729758
O        24.440310    24.338228     1.078789
C        25.428879    24.789660     0.160415
C        25.221085    25.937206    -0.639557
C        23.903465    26.610424    -0.760385
O        23.738710    27.448881    -1.619272
O        22.886164    26.414936     0.130075
H        23.434982    25.769508     0.578999
21
Frame 74
C        23.054264    22.994692     2.171756
H        22.932148    24.055962     2.437360
H        23.561069    22.485115     2.946091
H        22.226217    22.487564     1.789637
C        26.736605    24.386620     0.469908
H        26.887062    23.592388     1.194589
C        27.821442    24.755133    -0.381141
H        28.733465    24.276621    -0.523518
C        27.551773    25.833637    -1.298756
H        28.276138    25.856497    -2.067998
C        26.286377    26.502304    -1.335393
H        25.967731    27.228382    -2.083880
C        24.103249    23.081541     1.181005
O        24.641962    22.204647     0.567423
O        24.428123    24.423962     1.018890
C        25.511967    24.905518     0.377056
C        25.260218    26.076149    -0.501512
C        23.934174    26.687670    -0.772278
O        23.643503    27.372770    -1.713904
O        22.992168    26.381977     0.097806
H        23.433960    25.690229     0.595190
21
Frame 75
C        23.214233    22.839745     2.309437
H        22.961662    23.711939     2.892060
H        23.712542    22.168875     3.110713
H        22.208452    22.518417     1.969641
C        26.793941    24.341299     0.380414
H        27.010334    23.513004     1.026389
C        27.823198    24.652420    -0.442631
H        28.838722    24.072521    -0.308603
C        27.620604    25.769606    -1.378646
H        28.388292    26.209452    -2.050655
C        26.321072    26.324141    -1.480674
H        26.087152    27.031462    -2.252079
C        24.155190    23.235643     1.332999
O        24.480345    22.433521     0.535247
O        24.463696    24.567360     1.234638
C        25.452507    24.955902     0.261056
C        25.217266    25.928957    -0.670925
C        23.858929    26.627357    -0.793236
O        23.632624    27.423256    -1.709290
O        22.945446    26.416216     0.157859
H        23.379910    25.724674     0.640377
21
Frame 76
C        23.274837    22.996525     2.608410
H        23.395905    23.988611     3.080913
H        23.757565    22.241220     3.219345
H        22.186510    22.666273     2.434180
C        26.770353    24.419966     0.431129
H        26.887985    23.796749     1.331430
C        27.781803    24.785900    -0.512366
H        28.731720    24.302691    -0.370856
C        27.469254    25.644835    -1.536379
H        28.156395    25.981371    -2.257734
C        26.178484    26.176247    -1.676468
H        26.086563    27.036648    -2.404474
C        24.076679    23.254208     1.276054
O        24.362644    22.415901     0.395826
O        24.619322    24.503439     1.314117
C        25.477259    24.947016     0.317635
C        25.189562    25.923014    -0.651795
C        23.950798    26.646444    -0.756415
O        23.742920    27.398132    -1.687733
O        23.003399    26.381859     0.170802
H        23.542198    25.756338     0.613223
21
Frame 77
C        23.357109    23.104111     2.617908
H        23.480959    24.034355     3.223001
H        23.718079    22.241325     3.135272
H        22.355547    23.020565     2.306652
C        26.906918    24.397020     0.436091
H        27.107029    23.825682     1.306056
C        27.877295    24.674000    -0.675425
H        28.962303    24.443825    -0.539276
C        27.447643    25.483902    -1.644996
H        28.222649    25.886547    -2.362347
C        26.174446    26.164082    -1.642676
H        25.963535    26.795288    -2.430937
C        24.182671    23.333988     1.390593
O        24.131878    22.446898     0.522094
O        24.634327    24.634533     1.178382
C        25.591179    24.961166     0.351503
C        25.246555    25.888655    -0.677372
C        23.827057    26.563318    -0.786055
O        23.568228    27.391602    -1.570629
O        23.023436    26.379383     0.183466
H        23.549953    25.760403     0.649755
21
Frame 78
C        23.361797    23.302475     2.704375
H        23.519678    24.009478     3.511192
H        23.573071    22.320171     3.209095
H        22.267324    23.430782     2.592115
C        26.776011    24.197422     0.158790
H        27.195583    23.551386     0.974245
C        27.711704    24.621046    -0.729385
H        28.768904    24.216896    -0.539724
C        27.494356    25.595592    -1.748874
H        28.232571    25.985167    -2.425265
C        26.189936    26.132339    -1.720793
H        26.153994    27.024929    -2.427110
C        24.103043    23.478506     1.410084
O        24.212065    22.601793     0.583123
O        24.793964    24.641092     1.400650
C        25.525331    24.923792     0.257876
C        25.208595    25.848164    -0.700346
C        23.875895    26.528971    -0.740265
O        23.561743    27.282639    -1.617216
O        23.061495    26.261848     0.278804
H        23.680418    25.809652     0.819532
21
Frame 79
C        23.306747    23.533989     2.822029
H        23.993633    24.090012     3.509832
H        23.079048    22.464977     3.017921
H        22.391682    24.073618     2.359028
C        26.922825    24.311031     0.177528
H        27.197847    23.534554     0.821279
C        27.695641    24.512175    -0.927320
H        28.637506    24.072620    -1.129825
C        27.370569    25.471441    -1.960703
H        28.114622    25.688660    -2.733679
C        26.153919    26.205769    -1.652496
H        26.022282    26.979099    -2.419514
C        24.190437    23.385998     1.524201
O        24.154856    22.486326     0.689522
O        24.773003    24.598518     1.337116
C        25.685814    24.907578     0.292100
C        25.250074    25.901131    -0.614373
C        23.871864    26.594286    -0.695976
O        23.530056    27.193777    -1.689324
O        23.037050    26.336004     0.344672
H        23.689137    25.862501     0.831665
21
Frame 80
C        23.330219    23.534584     2.757630
H        23.784210    23.404900     3.756497
H        22.664185    22.704229     2.631351
H        22.818119    24.444229     2.856370
C        26.829082    24.186800     0.102100
H        27.182463    23.493935     0.891262
C        27.716682    24.526949    -0.970697
H        28.695606    24.046309    -1.098485
C        27.317539    25.483604    -1.895027
H        28.052994    25.600718    -2.732753
C        26.025656    26.051760    -1.862300
H        25.729507    26.729773    -2.625596
C        24.163916    23.509094     1.559691
O        24.269999    22.489552     0.957216
O        24.844986    24.713404     1.247142
C        25.627754    24.842997     0.248174
C        25.199425    25.753105    -0.796306
C        23.863258    26.570309    -0.693889
O        23.446110    27.250540    -1.599094
O        23.230879    26.457977     0.448313
H        23.944622    25.969374     0.823159
21
Frame 81
C        23.331736    23.637222     2.861484
H        23.666697    23.178461     3.727095
H        22.308359    23.448395     2.535049
H        23.168362    24.699234     2.914195
C        26.793329    24.256207     0.071320
H        27.026537    23.520840     0.830661
C        27.648172    24.494247    -1.019860
H        28.582590    23.849876    -0.992751
C        27.241989    25.327614    -2.056853
H        27.752483    25.471146    -2.935627
C        26.009380    25.944920    -1.950410
H        25.649467    26.515240    -2.912895
C        24.309271    23.437260     1.598866
O        24.498268    22.378729     1.028262
O        24.807407    24.629309     1.338303
C        25.489370    24.866064     0.183337
C        25.097023    25.748758    -0.797255
C        23.870930    26.563196    -0.677577
O        23.458202    27.262028    -1.631420
O        23.294353    26.748009     0.515357
H        23.854820    26.207073     1.026018
21
Frame 82
C        23.392336    23.509693     2.884769
H        23.444155    22.707611     3.658242
H        22.439575    23.327372     2.376542
H        23.597967    24.505415     3.389600
C        26.806366    24.228756     0.080765
H        26.956482    23.488485     0.870104
C        27.542379    24.316647    -1.160596
H        28.269558    23.621283    -1.338803
C        27.049519    25.114134    -2.155148
H        27.395641    25.083050    -3.257960
C        25.935114    25.969181    -1.925714
H        25.545471    26.565536    -2.624705
C        24.246830    23.471420     1.733315
O        24.674236    22.443678     1.240781
O        24.718130    24.715445     1.275772
C        25.567179    24.936615     0.148998
C        25.181744    25.907547    -0.786389
C        23.957521    26.680973    -0.702225
O        23.395006    27.230686    -1.645474
O        23.380817    26.820391     0.463962
H        23.952049    26.216213     0.911996
21
Frame 83
C        23.492716    23.565483     2.901556
H        23.275660    22.480133     3.308996
H        22.693840    24.200724     2.397799
H        23.828573    24.318132     3.616939
C        26.629763    24.083681    -0.101861
H        26.993538    23.407722     0.671792
C        27.398146    24.150656    -1.224462
H        28.326633    23.493349    -1.425807
C        27.069178    25.161217    -2.165554
H        27.540852    25.257992    -3.113605
C        25.885529    25.870819    -2.026567
H        25.452206    26.537415    -2.876820
C        24.411051    23.559572     1.851457
O        24.788597    22.482803     1.424869
O        24.772858    24.780746     1.319782
C        25.475733    24.876909     0.147517
C        25.090076    25.815182    -0.888121
C        23.882656    26.720638    -0.705476
O        23.461346    27.294445    -1.651380
O        23.375547    26.872887     0.515437
H        23.936642    26.258116     0.985140
21
Frame 84
C        23.498875    23.943203     3.138824
H        22.607958    23.445127     3.411329
H        23.058195    24.880466     2.800468
H        24.210913    24.099043     3.982071
C        26.730768    24.125141    -0.132256
H        27.077322    23.471256     0.569373
C        27.425602    24.170986    -1.363224
H        28.312546    23.551357    -1.667967
C        26.908195    25.118008    -2.334793
H        27.609226    25.183842    -3.157320
C        25.825439    25.864351    -2.153842
H        25.574463    26.589981    -2.948918
C        24.429909    23.485073     1.906948
O        24.814663    22.409752     1.584843
O        24.732861    24.595356     1.264457
C        25.488560    24.795719     0.082219
C        25.087717    25.758810    -0.864576
C        23.896667    26.707245    -0.725124
O        23.485182    27.441008    -1.609556
O        23.376011    26.776615     0.525585
H        23.946396    26.078060     0.881127
21
Frame 85
C        23.723547    24.000492     3.184762
H        22.873726    23.315279     3.173723
H        23.728769    25.054407     3.252869
H        24.284462    23.708023     4.041504
C        26.566784    23.944630    -0.272996
H        26.989674    23.198557     0.510668
C        27.345474    24.130108    -1.450133
H        28.270533    23.665665    -1.508751
C        26.920340    25.075514    -2.354053
H        27.695665    25.126728    -3.172737
C        25.741787    25.848892    -2.187087
H        25.543190    26.612389    -2.861874
C        24.505585    23.654081     2.030762
O        24.710182    22.545393     1.812366
O        24.821768    24.694595     1.166790
C        25.482380    24.715794    -0.062065
C        25.090096    25.767998    -0.941881
C        23.925352    26.679558    -0.707934
O        23.549387    27.482990    -1.494779
O        23.265799    26.650801     0.487243
H        23.873981    26.025040     0.911035
21
Frame 86
C        23.964855    24.178333     3.310126
H        22.853233    24.266674     3.174264
H        24.060066    25.262302     3.469248
H        24.424898    23.542507     4.062305
C        26.471199    23.906765    -0.342753
H        27.027008    23.232246     0.270262
C        27.121983    23.947681    -1.563801
H        28.054564    23.306141    -1.594058
C        26.849516    24.967306    -2.422554
H        27.350519    25.232439    -3.280075
C        25.828093    25.845339    -2.059412
H        25.509632    26.671600    -2.822879
C        24.580463    23.661444     2.055754
O        24.846603    22.543871     1.776624
O        24.817171    24.702541     1.279766
C        25.445433    24.747934     0.018468
C        25.087421    25.791603    -0.881099
C        23.842974    26.686104    -0.725769
O        23.612759    27.546135    -1.518901
O        23.167747    26.592316     0.333974
H        23.741549    26.023769     0.874927
21
Frame 87
C        24.141094    24.214285     3.512111
H        23.143162    24.553860     3.419795
H        24.990271    24.803883     3.947142
H        23.895714    23.370497     4.248538
C        26.438763    23.919134    -0.316171
H        26.764347    23.198282     0.350825
C        27.088165    23.905142    -1.613997
H        27.827070    23.156338    -1.892315
C        26.718771    24.818073    -2.506014
H        27.225159    24.977503    -3.459102
C        25.740149    25.775681    -2.226122
H        25.543327    26.521196    -2.938955
C        24.633125    23.705067     2.142950
O        24.874729    22.568914     1.839746
O        24.795834    24.709356     1.268190
C        25.391281    24.809090     0.005937
C        25.082588    25.819401    -0.880680
C        23.957747    26.752817    -0.739881
O        23.649368    27.644003    -1.539304
O        23.113098    26.535374     0.298454
H        23.814159    25.965546     0.676525
21
Frame 88
C        24.312208    24.172308     3.483233
H        23.923035    25.189445     3.378102
H        25.074017    24.350090     4.194342
H        23.732349    23.314655     3.731411
C        26.451033    23.860424    -0.279135
H        26.769970    23.098497     0.543382
C        27.052309    23.887455    -1.567426
H        27.868439    23.238047    -1.807109
C        26.630589    24.829403    -2.478745
H        27.107603    24.758579    -3.475372
C        25.505802    25.633671    -2.306200
H        25.086426    26.333010    -3.072173
C        24.743673    23.840940     2.140262
O        24.845266    22.621176     1.965245
O        24.906576    24.794863     1.224193
C        25.377911    24.711760    -0.050823
C        24.907682    25.668104    -1.024732
C        23.895472    26.755819    -0.749934
O        23.787987    27.685144    -1.518709
O        23.130758    26.641582     0.351359
H        23.623789    26.014116     0.921074
21
Frame 89
C        24.424942    24.446598     3.526821
H        24.175152    25.444433     3.364310
H        25.156136    24.165194     4.230415
H        23.454096    24.272247     3.803658
C        26.566051    23.907070    -0.322376
H        26.950350    23.321535     0.426786
C        26.991398    23.797873    -1.624732
H        27.794006    22.975733    -1.783876
C        26.469830    24.692173    -2.682403
H        26.791193    24.467421    -3.660849
C        25.513195    25.535324    -2.302600
H        24.914036    26.093708    -3.090875
C        24.690331    23.816378     2.169766
O        24.900242    22.647383     1.813163
O        24.796108    24.814709     1.319366
C        25.381481    24.736877     0.045741
C        24.942751    25.622252    -1.006331
C        23.914787    26.721531    -0.740527
O        23.710968    27.646996    -1.461600
O        23.254702    26.666878     0.442849
H        23.871096    26.027847     0.897592
21
Frame 90
C        24.442795    24.383522     3.504432
H        24.880047    25.328163     3.540203
H        24.813477    23.901623     4.403495
H        23.355412    24.230726     3.407658
C        26.392799    23.830872    -0.406327
H        26.625748    23.172516     0.470160
C        26.930973    23.690205    -1.655112
H        27.454956    22.876637    -2.032755
C        26.393959    24.548737    -2.662287
H        26.722748    24.401941    -3.751889
C        25.418034    25.523436    -2.348435
H        25.017628    26.141970    -3.063279
C        24.822704    23.874960     2.215814
O        24.832174    22.709473     1.991923
O        25.108282    24.967110     1.304002
C        25.415161    24.761887    -0.055584
C        24.982986    25.688129    -0.979962
C        23.921246    26.762569    -0.690339
O        23.526836    27.544344    -1.561170
O        23.333851    26.744709     0.505459
H        24.102253    26.226891     0.888492
21
Frame 91
C        24.432268    24.463453     3.612895
H        25.199768    25.262455     3.926805
H        24.190399    23.637325     4.338727
H        23.699362    25.266773     3.460486
C        26.430172    23.745655    -0.434153
H        26.790119    23.055134     0.303803
C        26.732552    23.592152    -1.794037
H        27.459698    22.873487    -2.131289
C        26.242077    24.521214    -2.666845
H        26.340851    24.448856    -3.748719
C        25.366156    25.572052    -2.256680
H        24.903568    26.215584    -3.068511
C        24.835972    23.960009     2.174898
O        24.879349    22.817043     1.983914
O        25.157413    24.988070     1.258496
C        25.479441    24.746931     0.009166
C        24.974442    25.672535    -0.967355
C        23.925398    26.645115    -0.706211
O        23.427019    27.343914    -1.594773
O        23.567276    26.869610     0.541686
H        24.339380    26.409464     0.999070
21
Frame 92
C        24.500874    24.685223     3.535425
H        25.425304    24.539276     4.117235
H        23.646946    24.385836     4.182930
H        24.177763    25.753908     3.344530
C        26.400442    23.788528    -0.414654
H        26.935867    23.266127     0.349748
C        26.723770    23.575163    -1.792801
H        27.521862    22.737341    -2.008305
C        26.204872    24.354677    -2.804029
H        26.460340    24.282492    -3.805960
C        25.271900    25.338715    -2.395239
H        24.852764    25.877232    -3.253824
C        24.854576    23.937780     2.230164
O        24.897898    22.754328     1.949634
O        25.148907    24.972290     1.296661
C        25.487688    24.810753    -0.028208
C        24.947489    25.648888    -1.036643
C        23.923128    26.716648    -0.616639
O        23.238388    27.262651    -1.469252
O        23.782375    27.062786     0.640333
H        24.558838    26.543976     1.040638
21
Frame 93
C        24.581945    24.623371     3.463450
H        25.259638    24.102596     4.077825
H        23.597898    24.173870     3.556902
H        24.855082    25.690615     3.515731
C        26.458723    23.748791    -0.372151
H        27.038555    23.173063     0.419898
C        26.708706    23.572838    -1.778653
H        27.440004    22.964207    -2.098110
C        26.025879    24.341862    -2.740965
H        26.503008    24.394056    -3.821119
C        25.055164    25.245777    -2.298912
H        24.763565    25.857897    -3.141710
C        24.980356    24.110830     2.183056
O        24.822891    22.901773     2.044200
O        25.259352    25.005312     1.283358
C        25.439413    24.681984    -0.061799
C        24.814930    25.503366    -1.000889
C        23.909342    26.707983    -0.675157
O        23.120060    27.224190    -1.449003
O        24.077108    27.193871     0.559183
H        24.813625    26.502760     0.650606
21
Frame 94
C        24.715948    24.711269     3.641252
H        24.896917    23.921658     4.414106
H        23.713589    24.977386     3.775528
H        25.066671    25.626884     3.854473
C        26.471788    23.848631    -0.449806
H        27.145994    23.332695     0.163584
C        26.547491    23.458826    -1.832901
H        27.398653    22.825111    -2.240256
C        25.842251    24.205170    -2.827925
H        25.950233    23.975451    -3.799894
C        25.007607    25.214022    -2.364520
H        24.528429    25.769426    -3.249381
C        24.950424    24.115555     2.257161
O        24.829868    22.900799     1.950043
O        25.282001    25.015224     1.309476
C        25.529654    24.790592     0.014414
C        24.884716    25.566933    -0.962752
C        23.904579    26.676729    -0.638335
O        23.109903    27.030622    -1.459875
O        24.184847    27.314541     0.506766
H        24.981459    26.838840     0.913215
21
Frame 95
C        24.878983    24.776623     3.630064
H        24.497774    24.079742     4.309204
H        24.055004    25.464437     3.392172
H        25.857870    25.155270     3.967060
C        26.310192    23.733995    -0.429526
H        26.822586    23.231943     0.383005
C        26.474735    23.353683    -1.741199
H        27.107994    22.504631    -2.008274
C        25.846592    24.053188    -2.762309
H        26.055023    23.803265    -3.858613
C        24.921492    25.146673    -2.384491
H        24.302647    25.612440    -3.062947
C        25.020161    24.162760     2.155369
O        24.837542    22.969467     1.935012
O        25.478239    25.090120     1.293749
C        25.555742    24.835140    -0.040119
C        24.902313    25.616924    -1.030736
C        23.890102    26.714355    -0.680482
O        22.990021    27.087309    -1.340739
O        24.140532    27.299488     0.507328
H        24.997911    26.792149     0.728007
21
Frame 96
C         0.102310    24.852425     3.477425
H        -0.875146    24.539486     3.887315
H         0.003866    25.936861     3.282012
H         0.991330    24.866732     4.147634
C         1.448620    23.685673    -0.490759
H         2.000600    23.200787     0.371016
C         1.448320    23.283516    -1.834024
H         1.939244    22.387341    -2.036925
C         0.648855    24.039743    -2.767075
H         0.550179    23.831074    -3.849044
C        -0.123856    25.133240    -2.302515
H        -0.738577    25.786362    -2.982221
C         0.154293    24.252996     2.232713
O        -0.259850    23.187447     2.056880
O         0.419892    25.161602     1.186331
C         0.498826    24.703972    -0.088499
C        -0.175300    25.473560    -0.933631
C        -1.097676    26.614397    -0.592168
O        -1.882976    27.110670    -1.353267
O        -0.911061    27.222395     0.534403
H        -0.139795    26.569178     0.749515
21
Frame 97
C         0.316130     0.058567     3.665327
H        -0.662996     0.391110     4.191455
H         0.542324     1.009411     3.239326
H         1.038071    -0.382927     4.338328
C         1.380979    -1.282205    -0.564601
H         1.954636    -1.796296     0.104036
C         1.392806    -1.721701    -1.959772
H         2.175088    -2.553971    -2.230107
C         0.552158    -1.014227    -2.919189
H         0.369197    -1.377649    -3.862802
C        -0.267663     0.006681    -2.414312
H        -1.075169     0.489822    -3.072881
C         0.089900    -0.685662     2.296763
O        -0.348053    -1.769808     2.196851
O         0.694854     0.071408     1.313174
C         0.506710    -0.277825    -0.030116
C        -0.285671     0.453457    -1.045395
C        -1.052209     1.682196    -0.658309
O        -1.833925     2.185939    -1.452946
O        -0.972902     2.048916     0.614377
H        -0.138967     1.508597     0.884200
21
Frame 98
C         0.517946     0.118331     3.592635
H        -0.409824     0.479512     3.898358
H         1.218597     0.874361     3.179016
H         1.124764    -0.353952     4.402551
C         1.340416    -1.408700    -0.511476
H         1.959432    -1.953919     0.279336
C         1.322766    -1.847597    -1.965238
H         1.673658    -2.715642    -2.345213
C         0.486491    -1.054346    -2.824467
H         0.439610    -1.461717    -3.906584
C        -0.354226     0.022939    -2.384738
H        -1.006946     0.428250    -3.034892
C         0.294903    -0.604724     2.293928
O        -0.397701    -1.587765     2.224401
O         0.649367     0.140967     1.157317
C         0.552780    -0.315683    -0.125631
C        -0.321429     0.454506    -1.004749
C        -1.100725     1.572562    -0.598717
O        -1.722733     2.240155    -1.450918
O        -1.102279     1.989240     0.677848
H        -0.258767     1.444052     0.910740
21
Frame 99
C         0.756382     0.129363     3.454589
H         0.147301     0.984710     3.700790
H         1.687998     0.713391     3.251469
H         0.961170    -0.601596     4.256613
C         1.288606    -1.454423    -0.477950
H         1.807931    -2.111207     0.251111
C         1.169678    -1.950496    -1.791749
H         1.606670    -2.953104    -2.097975
C         0.328789    -1.164850    -2.742571
H         0.218177    -1.500608    -3.718009
C        -0.313297    -0.001566    -2.316656
H        -0.976905     0.659870    -3.010484
C         0.323342    -0.489174     2.225638
O        -0.301297    -1.545874     2.201261
O         0.670941     0.173281     1.108638
C         0.507885    -0.305479    -0.151376
C        -0.267299     0.465702    -1.011974
C        -1.117819     1.629737    -0.586250
O        -1.732360     2.284214    -1.412434
O        -1.186766     1.941577     0.613096
H        -0.344056     1.363811     0.755994
21
Frame 100
C         0.959378     0.153860     3.589525
H         0.637641     1.243963     3.476008
H         1.972916    -0.143336     3.583536
H         0.424590    -0.184571     4.466969
C         1.086197    -1.379208    -0.527006
H         1.745986    -1.815736     0.131438
C         1.011882    -1.958147    -1.790654
H         1.744519    -2.805512    -1.893358
C         0.220029    -1.354055    -2.846326
H         0.063179    -1.812575    -3.863897
C        -0.431301    -0.170211    -2.401723
H        -1.099399     0.362963    -3.095388
C         0.458331    -0.520305     2.324244
O        -0.173293    -1.575305     2.229801
O         0.801569     0.184732     1.234335
C         0.493348    -0.223258    -0.072047
C        -0.330505     0.488903    -1.027937
C        -1.090683     1.721650    -0.701040
O        -1.732966     2.288829    -1.510788
O        -1.216780     2.044048     0.577045
H        -0.430892     1.482229     0.920697
21
Frame 101
C         1.049933     0.143888     3.493316
H         1.459023     1.064498     3.344411
H         1.868793    -0.411931     4.016216
H         0.201992     0.057964     4.176735
C         1.191198    -1.431920    -0.487240
H         1.961689    -1.899448     0.268602
C         0.905227    -1.980687    -1.831437
H         1.392204    -2.835861    -2.127580
C         0.045579    -1.328876    -2.646004
H         0.083366    -1.713575    -3.667406
C        -0.616910    -0.100176    -2.224823
H        -1.232251     0.422450    -2.905882
C         0.536802    -0.515364     2.260067
O         0.051909    -1.558919     2.374914
O         0.547066     0.198518     1.149339
C         0.490159    -0.278840    -0.081812
C        -0.368400     0.404441    -0.925609
C        -1.158460     1.656771    -0.763342
O        -1.693586     2.294274    -1.634114
O        -1.020185     2.163017     0.444105
H        -0.363946     1.453271     0.802477
21
Frame 102
C         1.174405     0.303009     3.479218
H         1.873185     1.043814     3.103222
H         1.454902    -0.428678     4.238170
H         0.346556     0.956427     3.731872
C         1.000219    -1.457092    -0.433448
H         1.637608    -1.989288     0.169541
C         0.869030    -2.041581    -1.689340
H         1.493343    -3.009638    -1.914376
C         0.036823    -1.475461    -2.680362
H        -0.087314    -1.744359    -3.689782
C        -0.704287    -0.285001    -2.338605
H        -1.230201     0.264583    -3.220290
C         0.544869    -0.531122     2.286458
O         0.296213    -1.679955     2.384546
O         0.510719     0.171884     1.119759
C         0.311031    -0.266203    -0.116918
C        -0.461645     0.380329    -1.035987
C        -1.117814     1.803308    -0.726018
O        -1.794261     2.339206    -1.560746
O        -0.807328     2.334273     0.470092
H        -0.164856     1.613646     0.802091
21
Frame 103
C         1.092093     0.508576     3.432528
H         2.220601     0.643478     3.545256
H         0.730801     0.280956     4.387768
H         0.466216     1.374431     3.171981
C         0.838360    -1.598921    -0.451333
H         1.457834    -2.059438     0.284717
C         0.614925    -2.117806    -1.746048
H         1.161728    -2.999906    -2.005337
C        -0.147113    -1.403433    -2.741394
H        -0.367673    -1.734003    -3.820870
C        -0.616446    -0.168060    -2.266866
H        -1.200111     0.268685    -3.033484
C         0.714505    -0.498197     2.388901
O         0.561713    -1.708930     2.435152
O         0.559331     0.177174     1.201431
C         0.296521    -0.396740    -0.086680
C        -0.461618     0.391183    -1.018734
C        -1.091043     1.743725    -0.791538
O        -1.892185     2.215202    -1.498808
O        -0.658511     2.413896     0.306118
H        -0.025724     1.653616     0.522087
21
Frame 104
C         1.004900     0.521517     3.431631
H         1.936536     0.453488     3.908870
H         0.024388     0.320752     4.021641
H         1.012993     1.470731     2.918298
C         0.716931    -1.721084    -0.476084
H         1.333444    -2.302599     0.307565
C         0.426641    -2.235449    -1.801353
H         0.628558    -3.224796    -2.072830
C        -0.294307    -1.411484    -2.739905
H        -0.503089    -1.866075    -3.676955
C        -0.660738    -0.117745    -2.307085
H        -1.242578     0.451492    -3.040728
C         0.832183    -0.375917     2.338837
O         0.787592    -1.542011     2.682753
O         0.596867     0.184460     1.069526
C         0.291490    -0.372346    -0.119043
C        -0.408564     0.368822    -1.075964
C        -1.022614     1.696273    -0.747923
O        -1.947827     2.195896    -1.364034
O        -0.529293     2.365336     0.222146
H         0.125254     1.720588     0.613710
21
Frame 105
C         0.947387     0.785271     3.335836
H         1.457793     0.668555     4.318125
H         0.051184     1.293883     3.611728
H         1.383050     1.633345     2.776380
C         0.672247    -1.735309    -0.493756
H         1.166595    -2.325596     0.195288
C         0.387536    -2.338750    -1.719913
H         0.686287    -3.455117    -1.976572
C        -0.362407    -1.566846    -2.650735
H        -0.668186    -1.978055    -3.596077
C        -0.852599    -0.254183    -2.316492
H        -1.461139     0.264163    -3.154861
C         0.791382    -0.383594     2.242813
O         1.011796    -1.587404     2.478213
O         0.582292     0.186029     1.051827
C         0.214457    -0.389185    -0.087585
C        -0.503724     0.331943    -1.042625
C        -0.949565     1.726754    -0.658788
O        -1.891331     2.275402    -1.288646
O        -0.359216     2.415526     0.302551
H         0.224452     1.662150     0.601576
21
Frame 106
C         0.944649     0.824844     3.220680
H         0.813227     0.326847     4.203203
H         0.159319     1.498256     2.964322
H         1.974952     1.228544     3.160143
C         0.746106    -1.746284    -0.498788
H         1.469849    -2.215497     0.249244
C         0.295068    -2.331330    -1.679982
H         0.582132    -3.287308    -1.971979
C        -0.574256    -1.564785    -2.484937
H        -1.085442    -2.020710    -3.415888
C        -1.020194    -0.232692    -2.132105
H        -1.723344     0.158049    -2.769823
C         1.008478    -0.341409     2.268563
O         1.147064    -1.569283     2.516792
O         0.567205     0.162961     1.047359
C         0.254745    -0.518417    -0.115708
C        -0.592163     0.319496    -0.971032
C        -0.991858     1.756838    -0.715148
O        -1.812921     2.323992    -1.450502
O        -0.317459     2.413911     0.217758
H         0.100524     1.525254     0.360629
21
Frame 107
C         1.178112     0.680214     3.378604
H         0.660226     0.173036     4.134453
H         0.821406     1.779615     3.176135
H         2.221389     0.625935     3.666570
C         0.628464    -1.750844    -0.474058
H         1.318387    -2.260682     0.124811
C         0.120577    -2.329407    -1.634025
H         0.395945    -3.365409    -1.795321
C        -0.794467    -1.714698    -2.521875
H        -1.152288    -2.176102    -3.348462
C        -1.163278    -0.402075    -2.147051
H        -1.918404     0.175493    -2.785549
C         0.998529    -0.314076     2.297660
O         1.253788    -1.426744     2.577684
O         0.773343     0.305526     1.038149
C         0.252487    -0.350519    -0.115173
C        -0.589908     0.304941    -1.068456
C        -0.950171     1.758671    -0.818595
O        -1.759988     2.295245    -1.533398
O        -0.408815     2.401965     0.183138
H         0.237854     1.766433     0.586821
21
Frame 108
C         1.432879     0.775622     3.237352
H         0.587926     0.653789     4.011107
H         1.270051     1.798349     3.019889
H         2.421276     0.710099     3.749886
C         0.637528    -1.760559    -0.385672
H         1.264440    -2.367313     0.270618
C        -0.068185    -2.434150    -1.429896
H         0.112130    -3.542509    -1.671267
C        -0.854917    -1.720760    -2.288901
H        -1.260865    -2.243263    -3.224520
C        -1.056525    -0.402213    -2.088598
H        -1.628141     0.140896    -2.877331
C         1.166414    -0.343922     2.142032
O         1.171793    -1.511275     2.331185
O         0.738977     0.297345     1.055727
C         0.270541    -0.355804    -0.025246
C        -0.522610     0.349698    -0.953483
C        -1.055987     1.747940    -0.850529
O        -1.753914     2.349320    -1.625504
O        -0.517311     2.447860     0.156430
H         0.087862     1.767066     0.519607
21
Frame 109
C         1.796772     0.853166     3.071810
H         0.928965     1.106263     3.676892
H         2.078239     1.557039     2.328866
H         2.606205     0.437924     3.728458
C         0.453314    -1.733364    -0.330852
H         1.245504    -2.109685     0.383234
C        -0.050483    -2.434428    -1.465917
H         0.270687    -3.368495    -1.752057
C        -0.886416    -1.759172    -2.303834
H        -1.305285    -2.317843    -3.137264
C        -1.266164    -0.454587    -2.099087
H        -1.938828     0.033325    -2.713132
C         1.151626    -0.231192     2.226769
O         1.183967    -1.390390     2.623249
O         0.740157     0.191741     0.905342
C         0.162039    -0.474839    -0.144023
C        -0.626222     0.314226    -1.033571
C        -0.986461     1.808869    -0.849310
O        -1.676486     2.320354    -1.626744
O        -0.523444     2.432588     0.282250
H         0.022005     1.647105     0.453211
21
Frame 110
C         2.070860     0.948348     2.859090
H         1.435920     1.776652     2.813631
H         2.953457     1.346397     2.215020
H         2.455319     0.838576     3.801249
C         0.443821    -1.855377    -0.404441
H         1.157768    -2.457790     0.044604
C        -0.140288    -2.450217    -1.487311
H         0.164824    -3.528761    -1.654355
C        -1.002566    -1.740956    -2.363248
H        -1.344185    -2.057478    -3.287707
C        -1.235865    -0.443659    -2.005043
H        -1.965031     0.259255    -2.581238
C         1.274307    -0.128456     2.179659
O         1.035019    -1.191937     2.668750
O         0.739407     0.194403     0.977894
C         0.087957    -0.501414    -0.062979
C        -0.701741     0.206538    -0.913822
C        -1.056577     1.684188    -0.760605
O        -1.609514     2.331725    -1.611518
O        -0.500766     2.298410     0.240032
H         0.099026     1.587531     0.537180
21
Frame 111
C         2.215261     0.890940     2.540107
H         1.970238     1.843697     1.967140
H         3.098148     0.545632     2.194377
H         2.079161     1.156423     3.622066
C         0.397231    -1.810411    -0.288852
H         1.035180    -2.330103     0.455500
C        -0.238531    -2.518018    -1.332807
H        -0.006370    -3.595176    -1.363071
C        -1.026404    -1.858422    -2.239228
H        -1.501263    -2.444650    -3.103982
C        -1.310478    -0.512134    -1.978812
H        -1.829426     0.061619    -2.671269
C         1.299962    -0.166862     2.075160
O         0.920770    -1.175634     2.666757
O         0.900443     0.217033     0.887291
C         0.177963    -0.452425    -0.052572
C        -0.621898     0.280656    -0.923477
C        -0.981709     1.715043    -0.791466
O        -1.728384     2.365400    -1.550682
O        -0.557579     2.384848     0.305932
H         0.114171     1.797074     0.641864
21
Frame 112
C         2.403863     0.738358     2.687767
H         2.499010     1.736213     2.171266
H         3.344695     0.129366     2.598329
H         2.252662     0.719228     3.798477
C         0.427680    -1.792179    -0.231632
H         1.180292    -2.216897     0.447717
C        -0.360801    -2.589784    -1.173578
H        -0.163992    -3.661111    -1.333987
C        -1.166857    -1.896455    -2.050086
H        -1.702399    -2.520769    -2.678030
C        -1.402730    -0.500899    -2.008572
H        -2.231124     0.017979    -2.535950
C         1.380752    -0.073786     1.996461
O         0.911174    -0.984620     2.566601
O         1.011582     0.305791     0.752055
C         0.227894    -0.445334    -0.089358
C        -0.703690     0.225275    -1.015381
C        -0.990594     1.730282    -0.832265
O        -1.807664     2.309609    -1.549564
O        -0.527991     2.365622     0.267711
H         0.100028     1.640369     0.319938
21
Frame 113
C         2.551671     0.753049     2.636448
H         2.644413     1.809365     2.364408
H         3.557205     0.186386     2.286115
H         2.328888     0.812225     3.693122
C         0.532324    -1.840026    -0.367233
H         1.314774    -2.378203     0.044967
C        -0.324491    -2.551837    -1.136245
H        -0.290153    -3.684282    -1.152236
C        -1.366814    -1.830621    -1.850350
H        -2.097934    -2.296652    -2.531187
C        -1.574335    -0.532251    -1.740576
H        -2.443748    -0.054646    -2.284046
C         1.450768    -0.146663     2.018146
O         0.763722    -0.958331     2.541121
O         1.133208     0.295738     0.757205
C         0.302026    -0.406173    -0.120435
C        -0.745278     0.265221    -0.880545
C        -1.067092     1.709058    -0.797497
O        -1.837907     2.193442    -1.653596
O        -0.429730     2.422722     0.035795
H         0.272038     1.840734     0.322359
21
Frame 114
C         2.473011     0.725879     2.433217
H         2.296177     1.824298     2.332747
H         3.265139     0.390721     1.940153
H         2.610608     0.233380     3.429637
C         0.489288    -1.757399    -0.381139
H         1.257707    -2.191745     0.316610
C        -0.278497    -2.607688    -1.115417
H        -0.168728    -3.643489    -1.210854
C        -1.439887    -2.088197    -1.683538
H        -2.054780    -2.840407    -2.227163
C        -1.733893    -0.646579    -1.468032
H        -2.581074    -0.287829    -1.963742
C         1.345013    -0.060042     1.937568
O         0.773453    -0.920742     2.585371
O         1.186777     0.347144     0.648182
C         0.219635    -0.364934    -0.199379
C        -0.824673     0.280574    -0.915096
C        -0.969505     1.693364    -0.866488
O        -1.819250     2.288796    -1.462082
O        -0.142676     2.481917    -0.073814
H         0.501752     1.800706     0.092673
21
Frame 115
C         2.476956     0.865992     2.380038
H         2.191247     1.787840     2.812266
H         3.269544     1.052717     1.677919
H         2.796271     0.278528     3.173414
C         0.477700    -1.904541    -0.331713
H         1.374634    -2.334380     0.032734
C        -0.521276    -2.696466    -0.946580
H        -0.421263    -3.821150    -1.085004
C        -1.501849    -1.948793    -1.582367
H        -2.248360    -2.548985    -1.979754
C        -1.633328    -0.557039    -1.563140
H        -2.575629    -0.187773    -2.105245
C         1.437166     0.008768     1.826203
O         0.754230    -0.784296     2.467372
O         1.180737     0.274002     0.524205
C         0.288858    -0.465019    -0.097672
C        -0.770396     0.197129    -0.767984
C        -0.968866     1.720373    -0.764525
O        -1.918116     2.233443    -1.247416
O        -0.014206     2.398665    -0.332511
H         0.618159     1.712857    -0.168189
21
Frame 116
C         2.551511     1.100128     2.408910
H         2.046157     1.907724     2.893067
H         3.291871     1.448441     1.573308
H         3.163248     0.551724     3.116540
C         0.317030    -1.928173    -0.242952
H         1.100653    -2.487983     0.264359
C        -0.690637    -2.630670    -0.917695
H        -0.679013    -3.710447    -0.789065
C        -1.687664    -1.972085    -1.607549
H        -2.473380    -2.491950    -2.208683
C        -1.780717    -0.574212    -1.607839
H        -2.695350    -0.173556    -2.000297
C         1.511604     0.042682     1.818921
O         0.845500    -0.681696     2.582905
O         1.349383     0.134723     0.497725
C         0.335877    -0.499157    -0.201979
C        -0.720563     0.117507    -0.937951
C        -0.919550     1.672248    -0.837886
O        -2.013463     2.109996    -0.971711
O         0.133187     2.428741    -0.487046
H         0.684129     1.674812    -0.512359
21
Frame 117
C         2.488968     1.126744     2.107268
H         1.970383     2.078153     2.589674
H         3.134018     1.405753     1.319289
H         3.042867     0.566227     3.002558
C         0.299011    -1.993955    -0.170278
H         1.059547    -2.494487     0.493690
C        -0.707850    -2.642987    -0.887036
H        -0.770740    -3.672563    -0.888808
C        -1.717813    -2.046139    -1.586051
H        -2.547721    -2.525797    -2.153251
C        -1.778497    -0.586104    -1.433759
H        -2.569770    -0.118473    -2.079486
C         1.484035     0.168878     1.783365
O         0.986800    -0.642787     2.567262
O         1.196263     0.193844     0.455273
C         0.217122    -0.605560    -0.179322
C        -0.737748     0.135422    -0.826476
C        -0.906570     1.614708    -0.719028
O        -1.955685     2.258541    -0.824076
O         0.307198     2.293633    -0.696691
H         0.919365     1.584352    -0.598488
21
Frame 118
C         2.524993     1.188208     1.972478
H         1.847869     2.050338     1.846011
H         3.366503     1.183426     1.207204
H         2.883464     1.110146     3.010555
C         0.283469    -1.959056    -0.174987
H         1.091287    -2.557515     0.130219
C        -0.750101    -2.674249    -0.832699
H        -0.521024    -3.784935    -1.060219
C        -1.828942    -2.040050    -1.404718
H        -2.648003    -2.561481    -1.882495
C        -1.763170    -0.633151    -1.348848
H        -2.618797    -0.086964    -1.748129
C         1.546545     0.057299     1.716578
O         1.068387    -0.626207     2.567499
O         1.168184     0.113727     0.444151
C         0.190274    -0.545720    -0.045926
C        -0.841536     0.112559    -0.707434
C        -0.885974     1.700583    -0.781651
O        -1.914400     2.331443    -0.830154
O         0.330742     2.253651    -0.849090
H         0.925427     1.534185    -0.753025
21
Frame 119
C         2.713742     1.240870     2.125818
H         2.495420     2.081146     1.556533
H         3.711648     0.942305     1.749692
H         2.689121     1.541034     3.123475
C         0.196239    -1.904146    -0.167581
H         1.144497    -2.298701     0.211655
C        -0.894067    -2.652003    -0.720307
H        -0.834738    -3.703851    -0.679791
C        -1.990896    -1.962554    -1.245979
H        -2.793110    -2.597156    -1.745595
C        -1.974950    -0.638765    -1.247698
H        -2.840975    -0.210664    -1.699790
C         1.591152     0.152555     1.732796
O         1.225774    -0.648513     2.533733
O         1.308260     0.105428     0.323556
C         0.240146    -0.568014    -0.176867
C        -0.829926     0.114874    -0.752377
C        -0.891064     1.600182    -0.863604
O        -1.920944     2.216294    -0.941341
O         0.279011     2.248491    -0.864256
H         0.713507     1.424696    -0.782342
21
Frame 120
C         2.762449     1.105369     1.978513
H         2.642677     1.775309     1.098385
H         3.671068     0.711792     2.059186
H         2.472302     1.689663     2.920260
C         0.219755    -1.984949    -0.059618
H         0.971830    -2.488461     0.529235
C        -0.923908    -2.695776    -0.435716
H        -1.144675    -3.739834    -0.375417
C        -2.017479    -1.979757    -1.047012
H        -2.830977    -2.490500    -1.406133
C        -1.940061    -0.590163    -1.123562
H        -2.686040    -0.002685    -1.654506
C         1.778622     0.023875     1.587124
O         1.232728    -0.670051     2.403950
O         1.252685     0.242408     0.248684
C         0.247667    -0.561257    -0.222496
C        -0.823637     0.132260    -0.722380
C        -0.917475     1.636897    -0.823860
O        -1.927596     2.245566    -1.171432
O         0.197101     2.336268    -0.818070
H         0.679258     1.565870    -0.592934
21
Frame 121
C         2.863632     0.963084     1.752241
H         3.028370     1.488641     0.774712
H         3.854001     0.349533     1.722300
H         2.822271     1.757176     2.482690
C         0.180126    -1.899951     0.041510
H         1.060399    -2.430481     0.337070
C        -0.894234    -2.667445    -0.322466
H        -0.756161    -3.800790    -0.276042
C        -2.081111    -2.050410    -0.800735
H        -3.053813    -2.637035    -1.013773
C        -2.044700    -0.663324    -1.089252
H        -2.921625    -0.051201    -1.453386
C         1.705616     0.095881     1.524253
O         1.351158    -0.691087     2.392865
O         1.325857     0.201762     0.239153
C         0.187296    -0.477608    -0.126556
C        -0.972423     0.211998    -0.762713
C        -0.907115     1.687461    -1.024095
O        -1.923765     2.274254    -1.380042
O         0.192659     2.323819    -0.609504
H         0.866798     1.718055    -0.396684
21
Frame 122
C         3.179735     0.958147     1.608035
H         3.231935     1.402164     0.609895
H         4.036822     0.222610     1.831347
H         3.116619     1.688636     2.445935
C         0.121392    -1.983784     0.027204
H         1.018507    -2.504555     0.444683
C        -1.116741    -2.719890    -0.339307
H        -1.159675    -3.808738    -0.108353
C        -2.199965    -1.944901    -0.779263
H        -3.080058    -2.490005    -1.003772
C        -2.144662    -0.577572    -1.047064
H        -2.979549    -0.102806    -1.494435
C         2.003832     0.085555     1.478012
O         1.459489    -0.502359     2.428715
O         1.314501     0.219480     0.283715
C         0.152283    -0.524075    -0.053243
C        -0.943031     0.199512    -0.613617
C        -0.989017     1.609234    -0.941899
O        -1.894490     2.097018    -1.649044
O         0.061960     2.393902    -0.547249
H         0.467633     1.571724    -0.290632
21
Frame 123
C         3.290792     0.829810     1.318789
H         3.328390     1.321245     0.313412
H         4.016231     0.143496     1.379416
H         3.377472     1.666383     2.061876
C         0.034210    -1.878835     0.262598
H         0.715967    -2.362694     0.926193
C        -1.105703    -2.658120    -0.167122
H        -1.222324    -3.663327     0.090598
C        -2.137242    -1.939180    -0.819320
H        -3.013560    -2.468154    -1.044181
C        -2.211646    -0.537240    -0.945132
H        -3.066128     0.063361    -1.415855
C         1.968674     0.094532     1.420244
O         1.628979    -0.430101     2.468849
O         1.289008     0.156167     0.272274
C         0.084547    -0.540919    -0.072589
C        -1.003245     0.144570    -0.646054
C        -0.968919     1.651052    -0.996376
O        -1.803677     2.086615    -1.716108
O        -0.075756     2.330982    -0.502283
H         0.313746     1.544657    -0.174241
21
Frame 124
C         3.321343     0.753595     1.018608
H         3.378094     1.225483     0.060650
H         4.077909    -0.090176     1.003214
H         3.574533     1.402825     1.777904
C        -0.081116    -1.837507     0.358051
H         0.715961    -2.494448     0.762144
C        -1.171695    -2.623030     0.100616
H        -1.075412    -3.723971     0.516936
C        -2.218880    -2.069584    -0.648678
H        -3.214632    -2.619860    -0.868131
C        -2.082490    -0.716698    -1.095119
H        -2.962059    -0.306153    -1.557937
C         2.014949     0.111115     1.364051
O         1.705682    -0.437139     2.367465
O         1.134876     0.197542     0.318555
C         0.026871    -0.468364     0.057989
C        -0.988325     0.205279    -0.680235
C        -0.953330     1.602146    -1.063921
O        -1.735462     2.157500    -1.690787
O        -0.037895     2.443587    -0.487637
H         0.503202     1.880560     0.011608
21
Frame 125
C         3.420424     0.737132     0.916413
H         3.336656     1.467151     0.135960
H         4.089609    -0.164676     0.773889
H         3.658519     1.199356     1.906244
C        -0.110202    -1.754661     0.510017
H         0.622447    -2.223794     1.071601
C        -1.310074    -2.532488     0.123188
H        -1.455341    -3.515169     0.419843
C        -2.292979    -1.967054    -0.600196
H        -3.058348    -2.590664    -0.896497
C        -2.069011    -0.593020    -0.977737
H        -2.804599    -0.083835    -1.618164
C         2.097701     0.067417     1.298392
O         1.886772    -0.404391     2.311964
O         1.262172     0.147118     0.351140
C        -0.037190    -0.462620     0.163675
C        -0.977614     0.166222    -0.600201
C        -1.036602     1.607150    -1.089101
O        -1.884119     2.063986    -1.802040
O        -0.044396     2.294917    -0.602172
H         0.355319     1.603624    -0.107431
21
Frame 126
C         3.446769     0.757171     0.923441
H         3.359330     1.825517     0.438419
H         3.982754     0.132719     0.306765
H         3.928595     0.794692     1.962447
C        -0.157738    -1.781226     0.513586
H         0.565515    -2.296516     1.214364
C        -1.351827    -2.531713     0.259024
H        -1.330977    -3.593189     0.607637
C        -2.423948    -1.928453    -0.469685
H        -3.442282    -2.397625    -0.660343
C        -2.343272    -0.614873    -0.763295
H        -3.176570    -0.193535    -1.362334
C         2.195329     0.105317     1.289596
O         2.041823    -0.453123     2.327349
O         1.199485     0.191229     0.343806
C         0.098242    -0.484857     0.015097
C        -1.004843     0.128514    -0.647378
C        -1.016582     1.608464    -1.109426
O        -1.905970     1.998116    -1.836066
O         0.094127     2.358266    -0.809798
H         0.427115     1.649319    -0.288978
21
Frame 127
C         3.311584     0.908316     0.845723
H         3.166552     1.959440     1.076196
H         3.770323     0.774140    -0.261273
H         4.088009     0.547631     1.493637
C        -0.052587    -1.801996     0.557512
H         0.855211    -2.295233     0.815623
C        -1.270742    -2.453446     0.475019
H        -1.301681    -3.535232     0.765627
C        -2.392622    -1.834736    -0.127696
H        -3.289372    -2.393098    -0.300084
C        -2.270379    -0.545221    -0.719277
H        -3.096884    -0.006332    -1.140138
C         2.074589     0.041920     1.162031
O         1.913241    -0.630153     2.177813
O         1.216127     0.170942     0.269881
C         0.040480    -0.497794     0.141342
C        -1.072041     0.182938    -0.554641
C        -0.968563     1.558058    -1.178726
O        -1.866598     2.089825    -1.813344
O         0.168515     2.193625    -1.037864
H         0.597734     1.588943    -0.458691
21
Frame 128
C         3.299663     1.047743     0.935158
H         3.074814     1.859091     1.606263
H         3.422933     1.338100    -0.138961
H         4.103554     0.397467     1.371810
C        -0.173018    -1.842697     0.572165
H         0.712581    -2.325507     0.868394
C        -1.424789    -2.501100     0.553929
H        -1.598824    -3.483068     0.935526
C        -2.567285    -1.788573     0.058730
H        -3.493868    -2.358902    -0.007276
C        -2.310769    -0.456475    -0.545649
H        -3.098345     0.100872    -1.122530
C         2.199063     0.104273     1.113919
O         2.088675    -0.581570     2.153105
O         1.293342     0.064821     0.057473
C         0.019692    -0.489302     0.069338
C        -1.041760     0.166849    -0.545493
C        -0.899491     1.460491    -1.209789
O        -1.890374     2.042633    -1.672281
O         0.221926     2.158988    -1.292385
H         0.741846     1.618550    -0.735707
21
Frame 129
C         3.276938     1.119607     0.836181
H         3.089056     2.012073     1.578929
H         3.295727     1.521932    -0.125378
H         4.276911     0.644753     0.992054
C        -0.228111    -1.841655     0.599497
H         0.610338    -2.280804     1.232617
C        -1.486192    -2.446464     0.714740
H        -1.556316    -3.487531     1.172170
C        -2.561989    -1.635247     0.107157
H        -3.657562    -1.922308     0.139363
C        -2.331976    -0.395807    -0.452122
H        -3.166344     0.088233    -0.890643
C         2.214002     0.087219     1.094937
O         2.155140    -0.545068     2.145333
O         1.327689     0.060089    -0.008372
C         0.092137    -0.556750    -0.048227
C        -1.023718     0.162573    -0.577799
C        -0.925739     1.487000    -1.178948
O        -1.923834     2.087913    -1.572136
O         0.236425     1.833090    -1.421274
H         0.578595     1.192832    -0.806192
21
Frame 130
C         3.259989     1.076634     0.618167
H         3.153865     1.940650     1.270683
H         2.956046     1.372795    -0.526505
H         4.274994     0.677009     0.782857
C        -0.146059    -1.805399     0.787522
H         0.763818    -2.209057     1.073559
C        -1.444231    -2.456483     0.840891
H        -1.583269    -3.414391     1.303047
C        -2.520868    -1.729439     0.293263
H        -3.465852    -2.121062     0.413563
C        -2.347969    -0.431478    -0.429705
H        -3.271361     0.072883    -0.774040
C         2.114098     0.040354     1.020063
O         2.066167    -0.536466     2.056146
O         1.231923     0.037642    -0.032200
C         0.003882    -0.536691     0.134029
C        -1.088758     0.201342    -0.487864
C        -0.868950     1.508597    -1.260267
O        -1.836408     2.176789    -1.443597
O         0.377852     1.860645    -1.696439
H         0.707118     1.168846    -1.141255
21
Frame 131
C         3.382571     0.948646     0.504519
H         3.205054     1.969625     0.844847
H         3.390361     1.006167    -0.555730
H         4.372128     0.461473     0.775604
C        -0.110117    -1.843782     0.777777
H         0.712631    -2.450006     1.175607
C        -1.457179    -2.313243     0.836130
H        -1.691908    -3.195788     1.433779
C        -2.655147    -1.622184     0.373401
H        -3.752973    -2.044263     0.505693
C        -2.429274    -0.400726    -0.397686
H        -3.342501     0.123613    -0.824684
C         2.231672     0.194421     0.989730
O         2.185089    -0.337847     2.034459
O         1.230429    -0.018114    -0.053492
C         0.012363    -0.530537     0.114620
C        -1.092386     0.143570    -0.441139
C        -0.944307     1.403068    -1.219526
O        -1.814376     2.208570    -1.380338
O         0.246313     1.638605    -1.715256
H         0.790128     1.037137    -1.235301
21
Frame 132
C         3.507621     0.774265     0.333888
H         3.229681     1.841676     0.243265
H         3.671244     0.388420    -0.607600
H         4.396551     0.801233     0.891420
C        -0.205935    -1.753617     0.841479
H         0.565636    -2.251836     1.457783
C        -1.521441    -2.259583     0.931533
H        -1.612358    -3.207554     1.501332
C        -2.712581    -1.613540     0.403148
H        -3.719399    -1.908523     0.486738
C        -2.328933    -0.371301    -0.232003
H        -3.163197     0.115992    -0.633875
C         2.246410     0.074751     0.878932
O         2.182547    -0.170817     2.066427
O         1.339478    -0.029484    -0.056410
C         0.054641    -0.573689     0.110455
C        -1.038009     0.132567    -0.410323
C        -0.974578     1.458570    -1.226618
O        -1.914553     2.137270    -1.365797
O         0.154855     1.645655    -1.823343
H         0.605589     0.997877    -1.299576
21
Frame 133
C         3.558535     0.534479     0.183414
H         3.254006     1.156322    -0.603603
H         3.973771    -0.459312    -0.330340
H         4.159940     0.937366     0.978883
C        -0.145956    -1.593410     0.837489
H         0.776038    -2.040793     1.127859
C        -1.418463    -2.219222     1.144253
H        -1.383775    -3.165415     1.702937
C        -2.554701    -1.620211     0.618425
H        -3.505557    -2.071673     0.894108
C        -2.333827    -0.424011    -0.144013
H        -3.341302     0.000725    -0.509666
C         2.232641     0.149309     0.771250
O         2.047355    -0.136181     1.993200
O         1.169758    -0.092706    -0.114639
C        -0.014925    -0.521633     0.089626
C        -1.039070     0.189816    -0.412884
C        -0.994796     1.436213    -1.275121
O        -1.941059     2.157753    -1.441126
O         0.256339     1.696541    -1.755683
H         0.565838     0.991446    -1.180205
21
Frame 134
C         3.642318     0.314573     0.091764
H         3.592746     0.716147    -0.967619
H         4.291799    -0.573848     0.158209
H         4.280123     1.212789     0.599269
C        -0.121133    -1.725007     0.858642
H         0.736788    -2.347261     1.165857
C        -1.402701    -2.154858     1.241400
H        -1.495692    -3.035531     1.870352
C        -2.570113    -1.463643     0.822700
H        -3.606316    -1.870661     0.992433
C        -2.329202    -0.345235    -0.070278
H        -3.090909     0.213766    -0.502920
C         2.214707     0.060342     0.688344
O         2.090365     0.080516     1.874787
O         1.222301    -0.148066    -0.146213
C        -0.007594    -0.556973     0.064760
C        -1.082613     0.142520    -0.375576
C        -1.020606     1.408149    -1.277225
O        -2.010501     2.073871    -1.584688
O         0.147627     1.794879    -1.644940
H         0.700906     1.238976    -1.099218
21
Frame 135
C         3.649176     0.209266    24.976559
H         3.570344     0.250776    23.821793
H         4.211398    -0.691547    25.172709
H         4.049465     1.102525    25.459795
C        -0.154517    -1.688139    25.906172
H         0.686273    -2.213095    26.285925
C        -1.470316    -2.082313    26.237623
H        -1.532190    -3.030050    26.822920
C        -2.707587    -1.372984    25.916691
H        -3.732237    -1.593842    26.027079
C        -2.425370    -0.205908    25.164577
H        -3.282530     0.354814    24.739111
C         2.358049     0.042422    25.621729
O         2.118603     0.278290    26.759901
O         1.379865    -0.253690    24.717030
C         0.079331    -0.615221    25.079224
C        -1.082531     0.183517    24.685041
C        -1.039452     1.325817    23.808365
O        -2.027058     1.856318    23.324871
O         0.111675     1.835967    23.427441
H         0.708600     1.324028    23.980518
21
Frame 136
C         3.539724     0.094684    24.771549
H         3.370025     0.202817    23.775517
H         4.018239    -0.867056    25.157043
H         4.112852     0.849250    25.219116
C        -0.136607    -1.726015    25.971729
H         0.822611    -2.253422    26.144018
C        -1.441426    -2.133446    26.480770
H        -1.567547    -3.055718    27.040453
C        -2.546609    -1.287974    26.078583
H        -3.488001    -1.585987    26.549171
C        -2.408079    -0.210085    25.183521
H        -3.294210     0.429956    24.833069
C         2.274256     0.114201    25.522202
O         2.118812     0.359164    26.648901
O         1.269758    -0.274892    24.689724
C        -0.002142    -0.615596    25.129326
C        -1.130568     0.196816    24.711575
C        -1.002412     1.383700    23.762135
O        -1.985248     1.851204    23.182449
O         0.239105     1.808765    23.512089
H         0.485811     1.113303    24.137447
21
Frame 137
C         3.526638     0.071904    24.616650
H         3.400014     0.517172    23.632111
H         3.855098    -0.877051    24.410231
H         4.229513     0.768631    25.216557
C        -0.171149    -1.648245    26.131973
H         0.684599    -2.211760    26.460640
C        -1.404965    -2.079374    26.686468
H        -1.539229    -2.832082    27.472246
C        -2.466308    -1.209710    26.166956
H        -3.434697    -1.528578    26.611931
C        -2.413237    -0.217349    25.174437
H        -3.198398     0.368161    24.840385
C         2.216901    -0.018517    25.445234
O         2.123405     0.425216    26.554296
O         1.193427    -0.358069    24.656160
C        -0.030871    -0.554780    25.135048
C        -1.113167     0.197585    24.637564
C        -0.949618     1.332591    23.695518
O        -1.989425     1.812598    23.259369
O         0.261906     1.789843    23.514547
H         0.733011     1.124701    24.051332
21
Frame 138
C         3.590861     0.123626    24.520149
H         3.481008     1.042996    23.756199
H         3.720966    -0.887242    24.017868
H         4.490535     0.112409    25.117790
C        -0.213150    -1.566937    26.204245
H         0.631288    -2.059711    26.661087
C        -1.490988    -1.857128    26.749214
H        -1.609875    -2.530242    27.646576
C        -2.632937    -1.164452    26.233459
H        -3.579840    -1.335804    26.651154
C        -2.427223    -0.125268    25.255968
H        -3.338488     0.463275    24.877024
C         2.346029     0.077977    25.335798
O         2.276359     0.400626    26.564079
O         1.330207    -0.470464    24.556551
C         0.012588    -0.618744    25.153387
C        -1.115084     0.201123    24.675348
C        -1.063223     1.197423    23.786737
O        -1.957511     1.787999    23.332672
O         0.100322     1.628103    23.370131
H         0.625856     0.967028    23.847996
21
Frame 139
C         3.501234     0.125907    24.442942
H         3.534992     1.117030    24.067011
H         3.330942    -0.578013    23.512867
H         4.418129     0.020749    25.068960
C        -0.159801    -1.603792    26.209660
H         0.716639    -2.236846    26.522692
C        -1.440821    -1.826000    26.816103
H        -1.555763    -2.596477    27.551247
C        -2.543103    -1.061480    26.397114
H        -3.530357    -1.112103    26.958103
C        -2.434030    -0.109292    25.326841
H        -3.232809     0.580500    24.972603
C         2.364944    -0.042886    25.339859
O         2.460688     0.302627    26.540270
O         1.196162    -0.295548    24.664856
C        -0.053687    -0.529567    25.300114
C        -1.149936     0.171883    24.799286
C        -1.033372     1.215950    23.629686
O        -1.963301     1.829945    23.307564
O         0.038326     1.437814    23.063517
H         0.486636     0.840614    23.708494
21
Frame 140
C         3.461272     0.140877    24.312990
H         3.422117     1.101863    23.812599
H         3.351795    -0.540310    23.601751
H         4.432623    -0.156882    24.764061
C        -0.072680    -1.388735    26.327505
H         0.735144    -1.975107    26.659893
C        -1.343845    -1.725574    26.861115
H        -1.261094    -2.454652    27.672426
C        -2.471289    -1.013576    26.443808
H        -3.409181    -1.200273    26.876104
C        -2.384745    -0.022391    25.443001
H        -3.279325     0.404875    25.230618
C         2.313807     0.038135    25.341846
O         2.438229    -0.006389    26.552504
O         1.152060    -0.252447    24.725420
C         0.018731    -0.406196    25.297123
C        -1.098680     0.230268    24.785110
C        -1.119525     1.212983    23.610298
O        -2.098935     1.906031    23.340771
O         0.030691     1.102005    22.849106
H         0.509020     0.560467    23.544647
21
Frame 141
C         3.607135     0.234748    24.339870
H         3.306097     1.190047    23.823383
H         3.662428    -0.639846    23.644566
H         4.475074     0.452054    24.795561
C        -0.126725    -1.282437    26.348141
H         0.803105    -1.654261    26.790628
C        -1.392504    -1.468339    27.025345
H        -1.440272    -2.084529    27.915220
C        -2.582120    -0.922687    26.617229
H        -3.560507    -1.145518    27.073641
C        -2.359354    -0.053024    25.489893
H        -3.353604     0.476724    25.057865
C         2.428152    -0.151801    25.306919
O         2.636614    -0.170793    26.463242
O         1.246518    -0.147403    24.669891
C         0.002987    -0.482679    25.230808
C        -1.166777     0.148946    24.758163
C        -1.179038     1.194650    23.615036
O        -2.127602     1.942058    23.433376
O        -0.174371     0.929376    22.661434
H         0.519825     0.449737    23.191616
21
Frame 142
C         3.489503     0.294500    24.264015
H         3.092972     0.942072    23.515436
H         3.749239    -0.720118    23.748350
H         4.387018     0.588910    24.921732
C        -0.069954    -1.178339    26.479664
H         0.785904    -1.774021    26.778179
C        -1.292126    -1.287851    27.086021
H        -1.475175    -2.018561    27.889528
C        -2.530124    -0.731831    26.619102
H        -3.548990    -0.841924    27.104706
C        -2.355281    -0.028533    25.463449
H        -3.218226     0.387234    25.052258
C         2.495599    -0.077618    25.232491
O         2.749095    -0.355374    26.337164
O         1.162904    -0.258441    24.689266
C         0.011276    -0.416629    25.327444
C        -1.146846     0.152907    24.827873
C        -1.282162     0.989305    23.560438
O        -2.055242     1.899003    23.369572
O        -0.318118     0.903152    22.732201
H         0.264336     0.332947    23.327227
21
Frame 143
C         3.358364     0.299022    23.974609
H         2.829647     1.074829    23.329346
H         3.633860    -0.555560    23.417902
H         4.305807     0.907640    24.294451
C        -0.130364    -1.146230    26.568422
H         0.757345    -1.693302    26.795156
C        -1.281310    -1.308866    27.255457
H        -1.325855    -1.954414    28.116795
C        -2.482428    -0.649607    26.786591
H        -3.407231    -0.893739    27.196615
C        -2.371001     0.056789    25.617840
H        -3.288906     0.363241    25.200321
C         2.376321    -0.227982    25.144911
O         2.737432    -0.421013    26.263927
O         1.117713    -0.197392    24.733627
C        -0.012898    -0.327048    25.424671
C        -1.169227     0.270865    24.909100
C        -1.118729     0.991681    23.534918
O        -2.032919     1.703147    23.242853
O        -0.158387     0.876713    22.658882
H         0.346099     0.357356    23.378567
21
Frame 144
C         3.272451     0.204276    23.855536
H         2.732039     0.964296    23.252338
H         3.101901    -0.665924    23.198854
H         4.246060     0.372200    24.037830
C        -0.134063    -1.110460    26.626501
H         0.861432    -1.417817    27.044279
C        -1.341267    -1.220076    27.376549
H        -1.416344    -1.786666    28.348370
C        -2.411363    -0.562520    26.852478
H        -3.361541    -0.717162    27.451393
C        -2.356155     0.239610    25.641907
H        -3.371310     0.733853    25.216837
C         2.473104    -0.160876    25.065725
O         2.943092    -0.401673    26.182690
O         1.142441    -0.304537    24.739950
C        -0.030337    -0.473234    25.367334
C        -1.192537     0.278158    24.848766
C        -1.187075     1.044381    23.607067
O        -2.223579     1.565195    23.101704
O        -0.107200     0.877562    22.838871
H         0.520563     0.349566    23.449881
21
Frame 145
C         3.311491    24.991625    23.883877
H         3.146554    25.967720    23.716091
H         3.009804    24.315165    23.098410
H         4.366054    24.682877    24.071327
C        -0.054736    24.025595    26.734800
H         0.777284    23.508818    27.127728
C        -1.276605    23.943821    27.446476
H        -1.289980    23.400517    28.382036
C        -2.377433    24.623428    26.931351
H        -3.267256    24.776413    27.536880
C        -2.387362    25.180246    25.624598
H        -3.178088    25.660084    25.258976
C         2.469383    24.650150    24.954527
O         2.861168    24.693867    26.088520
O         1.206141    24.655439    24.582493
C         0.001654    24.625275    25.386848
C        -1.162264    25.204908    24.870106
C        -1.239919    25.870773    23.540514
O        -2.342321    26.399956    23.240009
O        -0.157224    26.081705    22.814579
H         0.435420    25.492760    23.429167
21
Frame 146
C         3.393381    24.655855    23.807976
H         3.691965    25.703770    23.411692
H         2.812571    24.176035    23.068939
H         4.321317    24.155388    24.180851
C         0.027799    24.040735    26.664267
H         0.966583    23.616333    27.026863
C        -1.025332    24.105642    27.547228
H        -0.878464    23.818710    28.599779
C        -2.245002    24.669773    27.050629
H        -3.136655    24.626455    27.629070
C        -2.434021    25.097219    25.740791
H        -3.463812    25.500614    25.479668
C         2.453210    24.755909    24.933781
O         2.763516    24.706406    26.111111
O         1.170623    24.612791    24.510929
C         0.000233    24.702141    25.416098
C        -1.245021    25.317030    24.923439
C        -1.356747    25.919865    23.518421
O        -2.368779    26.313385    23.044527
O        -0.250751    26.126356    22.867004
H         0.317421    25.582767    23.536947
21
Frame 147
C         3.290748    24.325584    23.721552
H         3.438782    25.343618    23.195314
H         2.718786    23.595694    23.006437
H         4.166289    23.767225    23.917385
C         0.053611    24.100161    26.694645
H         1.017616    23.802895    27.148384
C        -1.093581    24.062405    27.513466
H        -1.122871    23.732990    28.567600
C        -2.217871    24.681095    27.013195
H        -2.959836    24.858440    27.798832
C        -2.271889    25.419119    25.816536
H        -3.257306    25.864922    25.481777
C         2.464956    24.626686    24.966879
O         2.931918    24.942457    26.016964
O         1.138662    24.782337    24.618109
C         0.001532    24.659271    25.346003
C        -1.226287    25.289577    24.909689
C        -1.424329    25.807796    23.547285
O        -2.425434    26.152689    23.172428
O        -0.325449    26.126596    22.806858
H         0.448730    25.807838    23.410011
21
Frame 148
C         3.223575    24.098045    23.679787
H         3.272892    24.697681    22.852905
H         2.706037    23.155977    23.385345
H         4.302743    23.988979    24.062681
C         0.045423    24.215397    26.701357
H         0.932192    23.769529    27.009899
C        -1.053930    24.166319    27.540380
H        -1.068580    23.676739    28.505421
C        -2.212016    24.716673    27.102976
H        -3.045857    24.710617    27.726757
C        -2.282189    25.327284    25.879532
H        -3.092615    25.857603    25.617569
C         2.424778    24.723627    24.826523
O         2.908130    25.001045    25.841404
O         1.109509    24.667381    24.577272
C         0.024217    24.869688    25.421362
C        -1.106829    25.460012    25.022909
C        -1.364313    25.953140    23.597105
O        -2.467937    26.052746    23.170200
O        -0.317587    25.952412    22.836876
H         0.382067    25.508236    23.467588
21
Frame 149
C         3.128371    24.016485    23.652678
H         2.635251    24.455494    22.755249
H         3.080479    22.993378    23.679255
H         4.134875    24.350945    23.851883
C         0.120715    24.291315    26.764622
H         1.069108    23.760303    27.081715
C        -0.955976    24.326975    27.612034
H        -0.676755    24.062653    28.631048
C        -2.137229    24.901564    27.295597
H        -3.011163    25.064909    28.029898
C        -2.248222    25.218832    25.944061
H        -3.324210    25.552874    25.535748
C         2.415118    24.564457    24.802637
O         2.897305    25.124397    25.765213
O         1.095336    24.586334    24.562790
C         0.078053    24.790724    25.493185
C        -1.172791    25.240150    24.957413
C        -1.438537    25.805996    23.533302
O        -2.485360    26.290112    23.120834
O        -0.325162    25.931450    22.735918
H         0.193184    25.470814    23.509714
21
Frame 150
C         3.150148    24.048922    23.611115
H         2.731128    24.194443    22.578747
H         3.473345    22.956646    23.776928
H         4.031973    24.613506    23.544189
C         0.242150    24.325039    26.781290
H         1.136670    24.150063    27.267094
C        -0.863712    24.599192    27.587164
H        -0.703654    24.346674    28.610373
C        -2.116143    25.019339    27.219349
H        -2.875410    25.110172    27.932425
C        -2.247226    25.416447    25.923107
H        -3.110164    25.839630    25.557844
C         2.328202    24.633095    24.705973
O         2.864387    25.129164    25.716497
O         1.023407    24.414370    24.526499
C         0.057983    24.571562    25.442566
C        -1.206646    25.168777    25.011620
C        -1.392316    25.757488    23.618298
O        -2.487328    26.322132    23.330040
O        -0.397526    25.733545    22.759436
H         0.319628    25.219650    23.309498
21
Frame 151
C         3.265797    24.108255    23.446428
H         2.762299    24.286520    22.524799
H         3.647493    23.031075    23.453747
H         4.172763    24.853039    23.621441
C         0.171380    24.257593    26.823097
H         0.923225    23.498144    27.128086
C        -0.828661    24.591982    27.782099
H        -0.803317    24.302952    28.847637
C        -2.006057    25.198328    27.359177
H        -2.752940    25.337030    28.155281
C        -2.170922    25.590565    26.065199
H        -3.069472    26.132318    25.834715
C         2.309521    24.558992    24.671764
O         2.803612    25.205627    25.621759
O         0.974827    24.336830    24.531786
C        -0.000189    24.605282    25.438427
C        -1.147988    25.348297    25.079506
C        -1.394429    25.717815    23.621780
O        -2.467860    26.321030    23.224720
O        -0.495480    25.407274    22.644243
H         0.173916    24.993494    23.320419
21
Frame 152
C         2.904389    24.164085    23.469738
H         2.490769    24.690321    22.546513
H         2.958376    23.104996    23.430477
H         3.894523    24.592449    23.543839
C         0.120690    24.211559    26.739092
H         0.964769    23.590893    26.905273
C        -0.761568    24.543743    27.772175
H        -0.818790    24.122677    28.806114
C        -1.751863    25.453918    27.362534
H        -2.587128    25.713585    28.036068
C        -1.924881    25.698750    26.040163
H        -2.936785    26.236851    25.735186
C         2.272361    24.682333    24.680765
O         2.807853    25.270611    25.644236
O         0.973697    24.246719    24.531696
C         0.055129    24.663115    25.465103
C        -1.096837    25.348633    25.028172
C        -1.468972    25.578672    23.596844
O        -2.371016    26.339319    23.281765
O        -0.638765    25.117504    22.694208
H        -0.011146    24.709768    23.412201
21
Frame 153
C         3.031707    24.247749    23.358898
H         2.765936    24.937017    22.582077
H         2.777672    23.248165    22.973326
H         3.988240    24.367426    23.714279
C         0.198134    24.303532    26.884756
H         1.076773    23.802113    27.217379
C        -0.664633    24.743469    27.894449
H        -0.495233    24.428307    28.923138
C        -1.755936    25.532791    27.450081
H        -2.490458    25.901794    28.108330
C        -1.973417    25.812433    26.091839
H        -2.811627    26.185612    25.738228
C         2.231273    24.628052    24.574402
O         2.703708    25.255367    25.489977
O         0.893189    24.127588    24.456642
C        -0.014728    24.551954    25.438957
C        -1.132508    25.314693    25.077295
C        -1.339080    25.668156    23.641357
O        -2.244162    26.329252    23.308815
O        -0.803413    24.887280    22.697605
H        -0.094359    24.380966    23.248070
21
Frame 154
C         2.979312    24.169397    23.222311
H         2.787737    24.899767    22.504122
H         2.638254    23.205120    22.904642
H         4.110908    23.962688    23.374262
C         0.363140    24.396637    26.931675
H         1.287528    23.748476    27.174789
C        -0.570362    24.894144    27.858814
H        -0.349203    24.743401    28.943634
C        -1.681202    25.596106    27.404184
H        -2.325137    25.915249    28.259790
C        -2.120733    25.813066    26.052807
H        -2.971672    26.576605    25.809315
C         2.242366    24.578827    24.566051
O         2.712984    25.303862    25.382610
O         0.952375    24.061268    24.574118
C        -0.015197    24.533213    25.534653
C        -1.169755    25.232441    25.081902
C        -1.458196    25.594919    23.678699
O        -2.205349    26.462763    23.307474
O        -0.913350    24.765419    22.760828
H        -0.282916    24.227697    23.355894
21
Frame 155
C         2.746423    23.964451    23.309204
H         2.465729    24.491461    22.301790
H         2.186624    23.002220    23.315338
H         3.820303    23.876207    23.410742
C         0.356523    24.434221    26.902199
H         1.147417    23.952219    27.271214
C        -0.534962    24.967777    27.894169
H        -0.336420    24.847324    28.956627
C        -1.671443    25.627552    27.463650
H        -2.329861    26.080294    28.179930
C        -2.023334    25.815090    26.085049
H        -2.989404    26.280693    25.776770
C         2.184549    24.616821    24.420757
O         2.778482    25.291080    25.233898
O         0.917500    24.232447    24.570091
C         0.136465    24.698660    25.543167
C        -1.082695    25.312578    25.131004
C        -1.496732    25.470264    23.648605
O        -2.169168    26.397799    23.408270
O        -0.934944    24.631750    22.742329
H        -0.327670    24.211645    23.437384
21
Frame 156
C         2.815140    23.815844    23.227747
H         2.098279    24.018269    22.389496
H         2.826404    22.705667    23.495176
H         3.852600    24.040073    23.050617
C         0.320631    24.610750    26.904900
H         1.363229    24.244923    27.227383
C        -0.467899    25.071560    27.932377
H        -0.100275    25.033707    28.991396
C        -1.737503    25.600559    27.627232
H        -2.453196    26.060707    28.380142
C        -1.954358    25.845175    26.243320
H        -2.869970    26.252945    26.070007
C         2.252585    24.377851    24.416838
O         2.837095    25.275436    25.013603
O         0.969006    24.185255    24.561979
C         0.088303    24.773518    25.538021
C        -1.111830    25.423615    25.146259
C        -1.527439    25.561152    23.662348
O        -2.344798    26.306854    23.207800
O        -0.963775    24.657965    22.907986
H        -0.331563    24.354067    23.634483
21
Frame 157
C         2.774708    23.567905    23.223898
H         2.061378    23.304022    22.540489
H         3.039557    22.724781    23.818056
H         3.629030    24.056629    22.620827
C         0.469202    24.702024    26.900555
H         1.402002    24.259718    27.189466
C        -0.428047    25.187437    27.834415
H        -0.159761    25.306816    28.872894
C        -1.610340    25.787727    27.465961
H        -2.168998    26.281548    28.261492
C        -1.877174    25.861300    26.112345
H        -2.672518    26.692669    25.836102
C         2.213507    24.480009    24.348072
O         2.886657    25.239687    25.007151
O         0.945957    24.254223    24.682327
C         0.059339    24.735374    25.544266
C        -1.126817    25.255211    25.124323
C        -1.588363    25.427868    23.787018
O        -2.494016    26.220362    23.511028
O        -1.022923    24.754446    22.806610
H        -0.341454    24.293947    23.355240
21
Frame 158
C         2.852795    23.496466    23.300657
H         2.056995    22.976139    22.699806
H         3.344115    22.680313    23.774361
H         3.599067    24.017887    22.810934
C         0.528050    24.693645    26.817091
H         1.428591    24.174145    26.929527
C        -0.195937    25.371778    27.835522
H         0.267348    25.444830    28.818295
C        -1.421839    25.954819    27.593365
H        -1.911585    26.526928    28.316528
C        -1.902150    25.920605    26.269035
H        -2.795764    26.402939    26.050426
C         2.173359    24.339790    24.412775
O         2.760722    25.173147    24.968481
O         0.840349    24.212923    24.580643
C         0.113638    24.783133    25.503506
C        -1.163421    25.383978    25.191925
C        -1.624899    25.469727    23.724075
O        -2.702665    25.984993    23.436138
O        -0.997672    24.806343    22.777599
H        -0.255768    24.446775    23.312782
21
Frame 159
C         2.751043    23.415730    23.403851
H         1.959158    23.157885    22.688324
H         3.063035    22.580872    24.111301
H         3.523636    23.891333    22.830215
C         0.580716    24.792463    26.788719
H         1.677484    24.416046    26.969843
C        -0.110881    25.443079    27.837589
H         0.342153    25.436079    28.879919
C        -1.341842    26.129299    27.581207
H        -2.068077    26.628969    28.327080
C        -1.765795    26.087269    26.276611
H        -2.739630    26.597206    26.066006
C         2.200447    24.333828    24.339170
O         2.807021    25.144213    24.921104
O         0.858970    24.032566    24.513145
C         0.182664    24.751976    25.446709
C        -1.110064    25.364357    25.197344
C        -1.791024    25.352354    23.771885
O        -2.911690    25.827620    23.472000
O        -1.009294    24.936527    22.818893
H        -0.360780    24.660128    23.496624
21
Frame 160
C         2.655489    23.245590    23.326609
H         1.963308    23.312263    22.510900
H         2.526973    22.216625    23.666985
H         3.804706    23.430883    23.041382
C         0.603265    24.829861    26.892227
H         1.305943    24.208509    27.132771
C        -0.090294    25.585419    27.817812
H         0.184751    25.645170    28.848320
C        -1.304172    26.265841    27.484390
H        -1.777550    26.837040    28.196030
C        -1.772845    26.110710    26.135178
H        -2.734072    26.675777    25.886837
C         2.207277    24.263966    24.351326
O         2.895456    25.163254    24.765406
O         0.822499    24.140474    24.495981
C         0.110370    24.796055    25.535606
C        -1.065235    25.394003    25.172230
C        -1.725053    25.324993    23.854446
O        -2.923028    25.622379    23.815800
O        -1.042595    24.932388    22.755241
H        -0.273803    24.610052    23.256071
21
Frame 161
C         2.606719    23.103966    23.206751
H         2.403272    23.580780    22.178902
H         2.054296    22.156075    23.378643
H         3.641234    22.906799    23.181461
C         0.727524    25.041508    26.816742
H         1.800250    24.609392    27.069607
C         0.100939    25.693539    27.856339
H         0.483521    25.581472    28.864563
C        -1.145890    26.258450    27.545177
H        -1.707699    26.608171    28.452747
C        -1.824220    26.232677    26.241299
H        -2.754286    26.629808    26.103792
C         2.105698    24.229639    24.238552
O         2.910475    25.081398    24.709251
O         0.739961    24.129705    24.647987
C         0.122488    24.944334    25.520142
C        -1.194466    25.533602    25.204714
C        -1.836188    25.313652    23.857204
O        -2.974308    25.446482    23.575544
O        -0.996342    24.825077    22.949398
H        -0.290710    24.455978    23.507652
21
Frame 162
C         2.298517    23.144562    23.271353
H         2.234142    23.647940    22.331467
H         1.469135    22.423538    23.179998
H         3.287990    22.689568    23.364334
C         0.811292    25.221676    26.782043
H         1.777812    24.865942    27.007025
C         0.080511    25.981812    27.830669
H         0.582238    26.249735    28.798283
C        -1.205984    26.412430    27.477816
H        -1.838789    26.937235    28.209618
C        -1.769990    26.051176    26.285847
H        -2.921170    26.191998    26.244104
C         2.086956    24.190331    24.261362
O         2.968993    25.001041    24.665173
O         0.795304    24.155264    24.479906
C         0.200456    24.888136    25.517632
C        -1.074552    25.254604    25.269958
C        -1.777495    25.141771    23.910198
O        -2.847562    25.590837    23.816830
O        -1.133444    24.730213    22.841406
H        -0.450786    24.379635    23.425138
21
Frame 163
C         2.381833    23.108608    23.129986
H         2.293061    23.725391    22.246166
H         1.740020    22.270241    23.237627
H         3.489913    22.783529    23.322220
C         0.890985    25.330790    26.668795
H         1.858669    25.014622    27.021770
C         0.190159    26.129837    27.694458
H         0.651094    26.305691    28.647442
C        -1.189904    26.459484    27.545303
H        -1.766070    26.880840    28.301170
C        -1.854978    26.045015    26.347105
H        -2.843910    26.412525    26.190369
C         2.172195    24.131975    24.134995
O         3.078048    24.808418    24.619061
O         0.856868    24.102837    24.566286
C         0.188897    24.995043    25.483778
C        -1.128475    25.440361    25.276993
C        -1.913351    25.232622    24.003870
O        -3.043363    25.614836    23.724125
O        -1.219622    24.497461    23.125399
H        -0.558900    24.199297    23.749409
21
Frame 164
C         2.409474    23.050642    23.044430
H         1.950028    23.475454    22.048502
H         1.956881    22.010471    23.115120
H         3.443648    23.057859    22.843378
C         0.911844    25.363491    26.665371
H         1.980163    25.017023    26.920898
C         0.258437    26.060913    27.711960
H         0.844410    26.255405    28.639765
C        -1.057877    26.541054    27.509846
H        -1.546821    27.303284    28.221514
C        -1.710071    26.307554    26.276875
H        -2.734958    26.617165    26.109667
C         2.150255    24.121529    24.225092
O         3.052917    24.732460    24.711134
O         0.836313    24.389610    24.461086
C         0.248440    25.092037    25.506775
C        -1.153358    25.467533    25.268724
C        -1.987037    25.050884    24.032707
O        -3.019946    25.630165    23.843948
O        -1.471402    24.136522    23.136694
H        -0.644037    23.827789    23.462723
21
Frame 165
C         2.233432    23.156036    23.090389
H         1.462383    23.367531    22.343084
H         2.178817    22.121000    23.531979
H         3.304355    23.291687    22.734257
C         0.884943    25.259533    26.562199
H         1.860567    25.076447    26.834312
C         0.334613    26.160797    27.540775
H         1.010481    26.564837    28.319523
C        -0.980645    26.639280    27.362986
H        -1.383369    27.204504    28.109911
C        -1.621103    26.311108    26.204430
H        -2.685309    26.684479    26.011517
C         2.149585    24.290054    24.115992
O         3.051306    24.621979    24.799072
O         0.842717    24.336512    24.450272
C         0.246952    25.017048    25.382389
C        -1.022001    25.486656    25.190884
C        -1.921486    25.148190    24.098730
O        -3.059592    25.550291    23.943377
O        -1.592610    24.020460    23.448128
H        -0.811673    24.038973    23.988159
21
Frame 166
C         2.355246    23.129797    22.911316
H         1.638713    23.476070    22.184334
H         2.348442    22.072050    22.957649
H         3.296334    23.564240    22.436373
C         0.892015    25.530529    26.592621
H         1.896086    25.086329    26.778759
C         0.360215    26.340902    27.636459
H         0.976478    26.648548    28.465687
C        -0.931442    26.854393    27.483818
H        -1.268211    27.692829    28.153975
C        -1.585983    26.440937    26.334803
H        -2.500992    26.859940    26.026730
C         2.143790    23.910957    24.185839
O         3.041180    24.617878    24.503811
O         0.841656    24.152908    24.506126
C         0.258707    25.082895    25.454895
C        -1.071524    25.468517    25.278397
C        -2.050267    24.949333    24.160473
O        -3.070256    25.529289    23.822687
O        -1.658000    23.996632    23.499027
H        -0.857755    23.786280    23.940792
21
Frame 167
C         2.056393    23.076427    22.951374
H         1.186363    23.285046    22.256714
H         1.840581    22.101782    23.440548
H         2.995783    23.082699    22.585915
C         1.039513    25.492249    26.589241
H         2.097846    25.288559    26.747059
C         0.492391    26.487867    27.347734
H         1.117404    26.930004    28.141706
C        -0.845926    26.879993    27.224785
H        -1.186102    27.719687    27.870398
C        -1.633768    26.276217    26.234077
H        -2.694189    26.600912    26.002321
C         1.946090    24.167488    24.033472
O         2.941718    24.680395    24.532978
O         0.808422    24.116571    24.678268
C         0.287408    24.966543    25.508387
C        -1.130543    25.357019    25.323381
C        -1.926559    25.020788    24.258110
O        -2.947770    25.585659    24.029247
O        -1.522787    23.924335    23.506474
H        -0.791006    23.820238    24.075424
21
Frame 168
C         1.886122    22.999609    22.998894
H         1.251125    23.350039    22.240944
H         1.515733    22.064970    23.440191
H         2.831254    22.738224    22.398628
C         1.150478    25.573862    26.618534
H         2.145056    25.201481    26.568403
C         0.652650    26.583176    27.466923
H         1.280226    27.154591    28.144958
C        -0.693002    27.018690    27.294291
H        -1.099742    27.686340    27.936108
C        -1.567959    26.542093    26.284744
H        -2.633088    26.817635    26.265697
C         1.992424    23.955488    24.159086
O         2.834047    24.834909    24.246006
O         0.762227    24.042965    24.734461
C         0.249173    25.016344    25.603867
C        -1.110783    25.393610    25.383451
C        -1.948222    24.859789    24.157814
O        -3.037315    25.405441    23.954885
O        -1.524980    23.868275    23.455597
H        -0.708177    23.683622    23.854216
21
Frame 169
C         1.981787    22.827782    23.068050
H         1.294847    22.860886    22.202909
H         1.535836    22.095394    23.748415
H         3.074214    22.608521    23.010784
C         1.119065    25.556715    26.610891
H         2.048373    25.020044    26.885679
C         0.597993    26.605030    27.479576
H         1.083414    26.779160    28.428989
C        -0.711371    27.085537    27.185133
H        -1.205473    27.881187    27.893265
C        -1.491667    26.575060    26.106016
H        -2.456655    27.011696    25.897640
C         1.815506    24.023071    23.917213
O         2.676340    24.847586    23.997772
O         0.788980    23.911453    24.780170
C         0.318072    24.991333    25.497086
C        -0.998320    25.549820    25.338213
C        -1.930915    24.956472    24.378508
O        -3.031351    25.304562    24.128571
O        -1.469728    23.943058    23.682253
H        -0.748833    24.022081    24.251442
21
Frame 170
C         2.053737    22.727337    23.330784
H         1.258606    22.611826    22.531738
H         1.868907    22.038952    24.177753
H         2.918067    22.463781    22.881569
C         1.058984    25.516277    26.606176
H         1.908815    24.874441    26.838341
C         0.743393    26.655010    27.403828
H         1.372227    26.949829    28.275757
C        -0.551229    27.199411    27.106590
H        -0.967309    27.962784    27.674164
C        -1.384697    26.566895    26.100981
H        -2.431983    26.999084    26.088144
C         1.955364    24.005716    24.021147
O         2.547040    25.012508    23.719738
O         0.748008    23.911285    24.777996
C         0.313400    25.014477    25.550678
C        -0.988971    25.471640    25.294971
C        -1.976874    24.891546    24.335327
O        -3.073578    25.385620    24.321571
O        -1.680291    23.840805    23.644279
H        -0.817218    23.559219    23.815659
21
Frame 171
C         2.329629    22.533674    23.455826
H         1.544498    21.941336    23.186436
H         2.577867    22.090740    24.393766
H         3.262827    22.650568    22.772139
C         1.255794    25.570353    26.369404
H         2.300591    25.315237    26.456650
C         0.953278    26.617365    27.230864
H         1.690924    27.069948    27.899033
C        -0.386746    27.177174    27.103357
H        -0.714125    27.883835    27.857191
C        -1.379342    26.638010    26.109324
H        -2.410727    27.017220    26.153879
C         1.762906    23.989231    23.956352
O         2.297438    25.054913    23.706991
O         0.656177    23.886913    24.840879
C         0.232580    25.012016    25.508387
C        -1.058555    25.517818    25.459270
C        -2.081795    24.964361    24.456903
O        -3.233278    25.361446    24.194136
O        -1.629769    23.844767    23.756939
H        -0.810336    23.862822    24.203703
21
Frame 172
C         2.335918    22.598476    23.664272
H         1.465363    21.911573    23.530619
H         3.019338    22.421352    24.512360
H         2.888049    22.495241    22.750013
C         1.271276    25.565432    26.313742
H         2.203720    25.067684    26.391144
C         0.887786    26.781216    27.019236
H         1.608313    27.238182    27.675055
C        -0.460535    27.267269    27.000162
H        -0.776404    28.254951    27.475508
C        -1.355009    26.551226    26.253222
H        -2.362218    27.097057    26.291887
C         1.784083    23.971167    23.989199
O         2.218440    24.957035    23.431513
O         0.640243    23.850086    24.786041
C         0.356063    24.948378    25.551556
C        -0.937698    25.415266    25.470474
C        -2.030035    24.902630    24.468914
O        -3.081891    25.552256    24.438599
O        -1.831603    23.790306    23.799782
H        -0.967132    23.545288    24.012840
21
Frame 173
C         2.291674    22.525173    23.647394
H         1.475852    21.746178    23.848347
H         2.969147    22.246342    24.474878
H         2.778589    22.505543    22.693460
C         1.309859    25.646152    26.285564
H         2.355811    25.212744    26.413342
C         0.912771    26.788212    27.073509
H         1.687270    27.191914    27.767769
C        -0.368144    27.401686    27.060719
H        -0.610355    28.245445    27.580677
C        -1.235407    26.635983    26.227566
H        -2.191314    27.120750    26.162865
C         1.765504    23.860064    23.886106
O         2.147472    24.845108    23.270382
O         0.786500    23.886261    24.872778
C         0.389121    25.012386    25.384628
C        -0.958850    25.557842    25.420244
C        -2.162629    24.925308    24.634039
O        -3.258473    25.400410    24.359184
O        -1.824497    23.750154    23.994543
H        -0.987677    23.821503    24.370522
21
Frame 174
C         2.107528    22.368765    23.621056
H         1.253170    21.821177    23.473698
H         2.828089    22.095396    24.379765
H         2.663133    22.316610    22.588346
C         1.314584    25.715855    26.279999
H         2.279867    25.300753    26.137440
C         0.939032    26.807566    27.044565
H         1.650843    27.433502    27.509930
C        -0.317761    27.386780    26.999096
H        -0.701069    28.300207    27.620337
C        -1.191395    26.774803    26.082134
H        -2.243618    27.121933    26.135521
C         1.630465    23.862499    23.866131
O         2.078517    24.815125    23.248518
O         0.695446    24.009258    24.803049
C         0.346478    25.165943    25.422413
C        -0.929390    25.592546    25.328663
C        -2.003102    24.813274    24.606447
O        -3.110544    25.305958    24.560320
O        -1.739367    23.660007    24.226753
H        -0.847153    23.543388    24.441883
21
Frame 175
C         1.809146    22.404490    23.434811
H         0.839466    21.971115    23.095970
H         2.085611    21.691196    24.214626
H         2.404172    22.448170    22.568502
C         1.391773    25.825071    26.300619
H         2.432383    25.550110    26.267632
C         1.039759    27.053778    26.846340
H         1.757762    27.707085    27.315722
C        -0.268172    27.458658    26.808945
H        -0.545776    28.435928    27.102142
C        -1.231459    26.694653    26.059807
H        -2.195676    27.171650    25.846348
C         1.655703    23.867634    23.843937
O         2.141988    24.796638    23.190788
O         0.840233    24.020979    24.941345
C         0.403498    25.009857    25.625793
C        -0.939293    25.459515    25.444527
C        -2.019848    24.828539    24.717442
O        -3.120954    25.290257    24.629181
O        -1.825473    23.551729    24.278416
H        -1.009106    23.672800    24.689121
21
Frame 176
C         1.613334    22.445927    23.212399
H         0.623804    22.343559    22.685263
H         2.022133    21.597710    23.782976
H         2.413316    22.581879    22.505701
C         1.407564    25.920097    26.051441
H         2.461450    25.505245    26.106304
C         1.112818    27.168024    26.682959
H         2.008903    27.740973    27.078144
C        -0.228993    27.655085    26.670265
H        -0.312189    28.648851    27.027617
C        -1.242146    26.858730    26.170835
H        -2.249054    27.246511    26.067228
C         1.508843    23.777571    23.861019
O         2.088545    24.748840    23.505461
O         0.798862    23.770329    24.936335
C         0.464029    25.076221    25.492050
C        -0.914016    25.541117    25.521709
C        -2.046902    24.659870    24.897413
O        -3.094320    25.161112    24.611780
O        -1.657295    23.573092    24.444351
H        -0.802091    23.468838    24.794876
21
Frame 177
C         1.361140    22.561310    23.302246
H         0.412483    22.581238    22.833832
H         1.406132    21.760387    24.043762
H         2.077271    22.704433    22.395363
C         1.524672    25.895842    26.123323
H         2.552238    25.767307    26.130341
C         1.201733    27.225626    26.546112
H         1.976873    27.897678    26.771118
C        -0.177205    27.650093    26.445747
H        -0.395258    28.683615    26.907394
C        -1.230729    26.762640    26.033651
H        -2.343971    26.980831    26.163662
C         1.592817    23.848751    23.852142
O         2.274227    24.722807    23.416224
O         0.798082    23.888483    24.926250
C         0.485065    25.090979    25.500031
C        -0.885445    25.476389    25.470314
C        -2.017858    24.712717    24.897783
O        -3.130767    25.177334    24.837429
O        -1.849414    23.333755    24.604214
H        -0.967010    23.387180    24.891748
21
Frame 178
C         1.342531    22.403328    23.142588
H         0.285826    22.437792    22.770317
H         1.519904    21.450012    23.670666
H         2.022363    22.331400    22.398132
C         1.462005    25.988894    25.930828
H         2.490479    25.595863    25.859440
C         1.224032    27.221125    26.527756
H         1.982101    27.847775    27.078827
C        -0.139402    27.641947    26.476496
H        -0.434065    28.582031    26.802568
C        -1.232766    26.931107    25.853941
H        -2.232235    27.287142    25.756292
C         1.578930    23.812296    23.779438
O         2.395222    24.592251    23.355904
O         0.794107    23.914314    24.907825
C         0.430917    25.179340    25.531923
C        -0.975424    25.541401    25.476841
C        -2.070851    24.696091    25.059175
O        -3.205460    25.080162    24.971725
O        -1.723264    23.444881    24.890764
H        -0.799211    23.393555    25.045555
21
Frame 179
C         1.423100    22.243465    23.138550
H         0.397700    22.207300    22.777777
H         1.683543    21.474531    23.865004
H         1.935280    22.344467    22.198433
C         1.425193    26.068914    25.791298
H         2.460972    25.640574    25.901869
C         1.225478    27.411497    26.376467
H         2.054138    27.993776    26.809500
C        -0.148514    27.755692    26.426514
H        -0.388724    28.694050    26.890680
C        -1.131030    26.864052    26.068016
H        -2.244657    27.102703    26.196884
C         1.575859    23.696592    23.745558
O         2.398910    24.543262    23.433716
O         0.675374    23.951302    24.753923
C         0.400411    25.173681    25.264111
C        -0.884565    25.602085    25.475891
C        -2.030333    24.692991    25.165264
O        -3.111886    25.090906    25.110775
O        -1.885479    23.375813    25.052835
H        -0.954868    23.471169    25.069696
21
Frame 180
C         1.493127    22.397392    23.430916
H         0.464857    22.165773    23.191479
H         1.760805    21.655910    24.181484
H         2.206796    22.097902    22.549696
C         1.479943    26.028824    25.538990
H         2.406767    25.703812    25.317629
C         1.212185    27.327984    26.070501
H         2.058398    28.011686    26.135395
C        -0.113312    27.686237    26.394558
H        -0.319957    28.638496    27.007385
C        -1.115465    26.785976    26.231640
H        -2.086107    26.965893    26.670067
C         1.605859    23.727592    23.713484
O         2.530621    24.392105    23.248892
O         0.710450    24.020565    24.699036
C         0.405424    25.221661    25.239794
C        -0.908644    25.528656    25.595688
C        -2.144298    24.722717    25.312630
O        -3.285029    25.135597    25.211140
O        -1.957212    23.486824    25.106604
H        -1.014233    23.493732    25.103252
21
Frame 181
C         1.641148    22.003529    23.472347
H         0.591534    21.864111    22.993645
H         1.778083    21.490921    24.487179
H         2.377291    21.809874    22.739790
C         1.471187    26.257576    25.329342
H         2.569287    26.201504    24.946367
C         1.198153    27.417316    26.046324
H         2.062915    28.027225    26.355993
C        -0.037938    27.819004    26.575396
H        -0.296098    28.685509    27.063208
C        -1.118305    26.909142    26.178493
H        -2.125980    27.187904    26.361046
C         1.574712    23.565353    23.814350
O         2.311860    24.342567    23.223993
O         0.563283    24.020142    24.501186
C         0.435431    25.266804    25.158108
C        -0.898266    25.616293    25.605944
C        -2.099316    24.725571    25.368954
O        -3.260550    25.159529    25.513794
O        -1.841445    23.395252    25.033503
H        -0.899829    23.503313    24.850246
21
Frame 182
C         1.508900    22.097033    23.720026
H         0.582107    21.687334    23.379354
H         1.475535    21.822159    24.749741
H         2.355412    21.567831    23.268778
C         1.454985    26.122274    25.309475
H         2.456895    25.826012    25.166698
C         1.215372    27.394611    25.892933
H         1.974911    28.111742    26.009102
C        -0.040175    27.771538    26.379250
H        -0.114747    28.806410    26.812830
C        -1.098498    26.876022    26.182297
H        -2.127405    27.247681    26.553499
C         1.573073    23.597111    23.646362
O         2.376915    24.290974    23.042187
O         0.663717    24.089718    24.623577
C         0.424396    25.310890    25.092331
C        -0.902709    25.635519    25.470783
C        -2.163548    24.709215    25.392601
O        -3.234925    25.094719    25.955017
O        -1.862686    23.491058    24.938620
H        -0.918408    23.714552    24.821995
21
Frame 183
C         1.545118    22.099447    23.689205
H         0.633115    21.874790    23.276142
H         1.676399    21.776314    24.710236
H         2.410396    21.683926    23.151741
C         1.487754    26.180906    25.252434
H         2.461372    25.975227    24.834164
C         1.308220    27.479362    25.797489
H         2.188255    28.183558    25.752075
C        -0.003714    27.916733    26.119234
H        -0.149647    28.988422    26.519861
C        -0.981037    26.920254    26.094143
H        -1.891391    27.298574    26.494152
C         1.536438    23.625422    23.829727
O         2.210444    24.205082    23.069544
O         0.509989    24.035191    24.637735
C         0.390008    25.293238    25.056713
C        -0.838980    25.618916    25.629644
C        -2.031607    24.607668    25.679399
O        -3.113604    24.895077    26.064564
O        -2.030084    23.611080    24.828037
H        -1.077543    23.782301    24.643131
21
Frame 184
C         1.519482    21.949459    23.620167
H         0.523228    21.359291    23.567019
H         1.737269    21.659658    24.682695
H         2.164755    21.608992    22.856632
C         1.443135    26.235830    25.102833
H         2.473209    25.964951    24.750092
C         1.198648    27.551414    25.531883
H         1.972914    28.314777    25.493067
C         0.007590    27.922956    26.144638
H        -0.265827    28.806290    26.439760
C        -1.019276    26.958761    26.068480
H        -1.968870    27.280588    26.444851
C         1.503191    23.482277    23.743454
O         2.140469    24.287369    23.077065
O         0.622173    23.867115    24.826225
C         0.391437    25.224014    25.173815
C        -0.898146    25.663544    25.538446
C        -2.054834    24.794781    25.546719
O        -2.908896    24.891653    26.343019
O        -1.994875    23.728762    24.891182
H        -1.039614    23.627081    24.686779
21
Frame 185
C         1.349728    21.967415    23.731972
H         0.261299    21.749802    23.759508
H         2.035307    21.677467    24.536104
H         1.903804    21.477003    22.818277
C         1.566367    26.273685    25.116236
H         2.451590    25.860023    24.740707
C         1.280727    27.585636    25.534161
H         2.002287    28.357826    25.544216
C        -0.033436    27.888744    25.833591
H        -0.247869    29.015377    26.157082
C        -1.082294    26.955643    25.992771
H        -2.158011    27.285332    26.184690
C         1.567246    23.508528    23.798903
O         2.080706    24.132847    22.846401
O         0.660187    24.014034    24.726809
C         0.439156    25.298674    25.193090
C        -0.860619    25.618925    25.689068
C        -2.005872    24.644924    25.828323
O        -2.945420    24.969563    26.517952
O        -2.009683    23.649357    24.886187
H        -1.037599    23.830139    24.771229
21
Frame 186
C         1.297922    22.024105    23.730715
H         0.450336    21.482357    24.045757
H         1.898555    21.881226    24.640667
H         1.829178    21.666338    22.825048
C         1.505947    26.265619    24.988037
H         2.497023    25.893667    24.660585
C         1.313972    27.584084    25.371264
H         2.167412    28.325871    25.225426
C         0.027760    27.988989    25.842161
H        -0.119082    28.992893    26.134239
C        -1.040687    27.119137    26.028612
H        -1.876246    27.421280    26.594440
C         1.260568    23.460835    23.747520
O         1.966934    24.136772    22.969248
O         0.607860    23.956367    24.787731
C         0.436122    25.279121    25.033737
C        -0.835725    25.699217    25.575680
C        -1.934129    24.656445    25.806625
O        -2.880933    24.922352    26.526039
O        -1.817145    23.498915    25.103622
H        -0.824758    23.583782    24.963474
21
Frame 187
C         1.280966    21.998331    23.770599
H         0.202374    21.673534    23.692211
H         1.939471    21.661663    24.552605
H         1.679762    21.538477    22.963741
C         1.469665    26.314409    24.846668
H         2.425750    26.083498    24.336948
C         1.233637    27.650518    25.212774
H         2.004802    28.375164    25.199997
C         0.060762    27.994072    25.889145
H        -0.052000    28.993416    26.212711
C        -0.954792    27.000431    26.023294
H        -1.949807    27.222223    26.513660
C         1.475433    23.466408    23.781460
O         1.802031    24.101784    22.786613
O         0.705959    23.884737    24.747746
C         0.503470    25.267212    25.031672
C        -0.763224    25.687847    25.562723
C        -1.949990    24.748482    25.848335
O        -2.953873    25.035049    26.495754
O        -1.877264    23.471441    25.500393
H        -0.917964    23.441286    25.212862
21
Frame 188
C         1.387514    21.854740    23.711372
H         0.475153    21.336006    23.819046
H         1.801268    21.702955    24.707701
H         2.079563    21.738377    22.769501
C         1.365691    26.226976    24.829479
H         2.289207    25.947598    24.384056
C         1.232602    27.572536    25.158377
H         1.972316    28.298395    24.893274
C         0.020430    27.947147    25.712946
H        -0.146602    29.093388    25.953625
C        -0.946154    27.040071    26.037577
H        -1.890018    27.391947    26.468351
C         1.232634    23.410427    23.544334
O         1.797463    24.005001    22.664993
O         0.649534    24.040493    24.678715
C         0.444896    25.338287    25.153828
C        -0.725723    25.688679    25.835323
C        -1.826408    24.774466    26.096954
O        -2.970339    25.154949    26.333679
O        -1.704725    23.498556    25.779125
H        -0.726891    23.480164    25.511177
21
Frame 189
C         1.333878    21.900852    23.704460
H         0.394786    21.470415    23.345695
H         1.923227    21.470224    24.548967
H         1.990495    21.590826    22.921171
C         1.364677    26.217381    24.721367
H         2.343162    25.984875    24.238548
C         1.286862    27.611626    25.001287
H         2.153233    28.321440    24.672155
C         0.148260    27.980236    25.704992
H         0.025634    28.889439    26.056011
C        -0.766979    27.047390    25.962412
H        -1.571771    27.422569    26.516905
C         1.255497    23.474781    23.659927
O         1.549356    24.139835    22.776646
O         0.633093    23.984211    24.732086
C         0.375513    25.303043    24.924936
C        -0.779882    25.684464    25.562418
C        -1.906520    24.699284    25.978878
O        -2.976614    25.141911    26.369759
O        -1.576908    23.403910    26.244030
H        -0.634000    23.518333    25.876530
21
Frame 190
C         1.285212    22.017679    23.735809
H         0.224624    21.662624    23.833076
H         1.625736    21.816473    24.721920
H         1.820947    21.834156    22.836021
C         1.449337    26.142929    24.696491
H         2.417298    25.926714    24.200203
C         1.196106    27.553885    25.009745
H         1.931137    28.267529    24.809647
C         0.088702    28.020113    25.595562
H        -0.078879    29.169043    25.636230
C        -0.880349    27.091932    25.846098
H        -1.882031    27.413841    26.288624
C         1.129646    23.422567    23.548786
O         1.432221    24.025867    22.582886
O         0.672890    23.879829    24.695084
C         0.505675    25.221363    25.018950
C        -0.687335    25.695435    25.691261
C        -1.814330    24.805220    26.191217
O        -2.984418    25.109556    26.357571
O        -1.397900    23.551189    26.394779
H        -0.463585    23.599178    25.964546
21
Frame 191
C         1.209445    21.875885    23.684198
H         0.284018    21.424881    23.768169
H         2.076975    21.508263    24.233131
H         1.463299    21.505938    22.650436
C         1.553348    26.284309    24.692318
H         2.481102    26.048565    24.225338
C         1.226032    27.601023    24.916838
H         1.916328    28.361671    24.570551
C         0.040295    28.072498    25.439184
H        -0.099879    29.130075    25.559120
C        -0.945937    27.193409    25.864641
H        -1.917306    27.502768    26.223347
C         0.996833    23.318237    23.628176
O         1.220540    23.932474    22.605274
O         0.666726    23.954258    24.792156
C         0.524840    25.332090    25.020271
C        -0.673729    25.719690    25.681219
C        -1.714225    24.757275    26.164356
O        -2.829437    25.109606    26.433140
O        -1.308704    23.476536    26.447483
H        -0.362867    23.508627    26.019779
21
Frame 192
C         1.052309    21.842348    23.844568
H         0.198714    21.630899    24.553680
H         1.875685    21.391266    24.458031
H         0.895840    21.468485    22.871357
C         1.471004    26.299206    24.541254
H         2.369931    25.966795    24.014717
C         1.236618    27.582590    24.675522
H         1.937566    28.311356    24.159853
C         0.096660    27.966986    25.338169
H         0.030673    29.010057    25.480612
C        -0.868254    27.085505    25.844906
H        -1.781947    27.391254    26.434273
C         1.023972    23.441853    23.733276
O         0.959527    24.107370    22.631247
O         0.916992    23.978918    24.890432
C         0.544616    25.298222    25.009308
C        -0.687267    25.674026    25.654718
C        -1.726982    24.702579    26.161673
O        -2.740042    25.110762    26.583939
O        -1.289175    23.475401    26.343822
H        -0.358787    23.763712    25.986084
21
Frame 193
C         1.011736    21.968273    23.901846
H         0.187752    21.655313    24.601070
H         2.026713    21.707174    24.087311
H         0.700838    21.435589    22.980133
C         1.468269    26.331818    24.533287
H         2.392111    25.969717    24.041267
C         1.219961    27.728199    24.560608
H         1.876933    28.452793    24.247326
C         0.025329    28.033764    25.136309
H        -0.265963    29.158972    25.050877
C        -0.824980    27.109911    25.751541
H        -1.772478    27.482946    26.183565
C         0.803689    23.332909    23.701942
O         0.777480    23.889957    22.576786
O         0.859880    23.976017    24.982742
C         0.648640    25.309605    25.143127
C        -0.514546    25.680990    25.824123
C        -1.493389    24.715879    26.383602
O        -2.592430    25.057129    26.656647
O        -1.325867    23.479038    26.192204
H        -0.349867    23.572697    25.834278
21
Frame 194
C         1.029900    21.815119    23.848309
H         0.340074    21.616055    24.625265
H         1.999067    21.416088    24.229149
H         0.651757    21.385471    22.867325
C         1.524266    26.303041    24.451296
H         2.494868    26.039459    24.055878
C         1.164505    27.688663    24.490814
H         1.852134    28.514294    24.148312
C        -0.011472    28.081333    25.170315
H        -0.197195    29.037477    25.330437
C        -0.835999    27.104071    25.774872
H        -1.657304    27.496464    26.331898
C         0.925960    23.337006    23.733387
O         0.495708    23.805695    22.734943
O         1.014434    23.917698    24.959593
C         0.609584    25.321384    24.974575
C        -0.646076    25.758879    25.564884
C        -1.568959    24.803360    26.212662
O        -2.483802    25.159676    26.957567
O        -1.216392    23.533978    26.270350
H        -0.307030    23.675331    25.799892
21
Frame 195
C         1.215289    21.834320    24.007761
H         0.424936    21.457899    24.763659
H         2.243625    21.918968    24.505930
H         1.235998    21.211258    23.119955
C         1.482715    26.226519    24.284592
H         2.369671    25.864189    23.731516
C         1.270922    27.600544    24.519308
H         2.002510    28.341034    24.095455
C         0.017821    28.039185    25.095078
H        -0.274553    29.142353    25.284861
C        -0.885980    27.146782    25.649616
H        -1.713657    27.656666    26.236105
C         0.680777    23.277988    23.647850
O         0.314713    23.770550    22.646391
O         0.895929    24.053658    24.839373
C         0.591674    25.365515    24.907948
C        -0.549898    25.792715    25.687960
C        -1.424255    24.794579    26.451082
O        -2.441719    25.271597    27.027895
O        -1.167762    23.431763    26.372364
H        -0.268636    23.439014    25.870531
21
Frame 196
C         1.267421    21.930094    23.842260
H         0.529472    21.422611    24.523624
H         2.223305    21.967039    24.379585
H         1.471662    21.293127    22.909906
C         1.402985    26.186945    24.236937
H         2.133299    25.693026    23.641607
C         1.123648    27.616486    24.246693
H         1.771609    28.233242    23.757200
C         0.115185    28.124012    25.058620
H        -0.074947    29.190281    25.119505
C        -0.663901    27.195387    25.801121
H        -1.472050    27.610386    26.372593
C         0.748088    23.265553    23.667164
O         0.240338    23.549915    22.655704
O         0.743521    23.981531    24.856508
C         0.572062    25.317307    24.945786
C        -0.501266    25.847404    25.690248
C        -1.483448    24.859560    26.447590
O        -2.447043    25.217123    27.115265
O        -1.091583    23.572313    26.553270
H        -0.252422    23.749714    25.976192
21
Frame 197
C         1.349324    21.793423    23.766842
H         0.797416    21.200674    24.435696
H         2.263850    22.123232    24.298279
H         1.483498    21.334961    22.780109
C         1.118867    26.186596    24.033245
H         1.884032    25.724308    23.371773
C         0.997261    27.551781    24.177456
H         1.537639    28.254473    23.463785
C         0.139280    28.095854    25.110598
H        -0.049182    29.114836    25.192785
C        -0.594510    27.123451    25.800285
H        -1.298926    27.556555    26.537657
C         0.718688    23.178570    23.725607
O         0.239709    23.638544    22.690163
O         0.840641    23.928164    24.784067
C         0.467356    25.215998    24.839188
C        -0.442576    25.707401    25.689419
C        -1.363752    24.978416    26.632381
O        -2.390831    25.414284    27.097790
O        -1.103791    23.735126    26.754047
H        -0.244732    23.668331    26.216452
21
Frame 198
C         1.313308    21.832661    23.824842
H         0.879575    21.201532    24.603024
H         2.303279    22.085636    24.044504
H         1.453879    21.222004    23.000830
C         1.186774    26.110962    24.073153
H         1.735025    25.631462    23.297035
C         1.004879    27.426653    24.032154
H         1.474094    28.000282    23.223265
C         0.084366    28.085680    24.879744
H        -0.102287    29.259663    24.846600
C        -0.591617    27.213978    25.827389
H        -1.367284    27.680946    26.458736
C         0.717330    23.182442    23.636337
O         0.225158    23.576109    22.546154
O         0.589074    23.971912    24.712814
C         0.403510    25.274103    24.876711
C        -0.432754    25.803673    25.837164
C        -1.267306    25.008211    26.759565
O        -2.271273    25.428917    27.219007
O        -0.966398    23.674339    26.905437
H        -0.197365    23.651619    26.245508
21
Frame 199
C         1.126294    21.808609    23.885983
H         0.753433    21.340405    24.797741
H         2.117074    22.148369    24.089756
H         1.061132    21.323240    22.893229
C         1.170417    26.059599    23.889294
H         1.846990    25.558273    23.193190
C         1.003086    27.468662    23.909981
H         1.484189    28.072947    23.212862
C         0.129071    28.073067    24.881672
H        -0.091982    29.052372    24.865120
C        -0.685019    27.226789    25.725172
H        -1.390014    27.641743    26.394760
C         0.609894    23.170111    23.652596
O         0.332127    23.575012    22.551659
O         0.569418    23.909096    24.734318
C         0.426955    25.268845    24.786129
C        -0.549582    25.841892    25.680349
C        -1.351130    24.945467    26.746937
O        -2.109804    25.420912    27.560484
O        -0.778418    23.791958    26.981934
H        -0.118507    23.767860    26.226780
21
Frame 200
C         0.870572    21.694706    23.978699
H         0.168687    21.246998    24.697550
H         1.988513    21.664837    24.255966
H         0.822196    21.022509    23.096659
C         1.007381    26.086376    23.833162
H         1.687963    25.652481    23.069977
C         0.883701    27.555859    23.940872
H         1.524883    28.215532    23.229868
C        -0.089333    28.078671    24.848440
H        -0.258160    29.194218    24.885199
C        -0.752317    27.255249    25.705063
H        -1.523029    27.784866    26.373539
C         0.690288    23.110226    23.560303
O         0.365747    23.512861    22.546703
O         0.644646    23.839367    24.735867
C         0.345870    25.207827    24.738506
C        -0.435786    25.813847    25.742052
C        -0.994577    25.084831    26.863356
O        -1.896175    25.604492    27.510546
O        -0.744803    23.749393    26.989134
H        -0.181005    23.686293    26.173536
21
Frame 201
C         0.618446    21.610775    24.056635
H        -0.176613    21.295441    24.801100
H         1.525751    21.539726    24.664051
H         0.725748    21.090683    23.093283
C         1.055413    26.164797    23.768135
H         1.698171    25.794292    23.050615
C         0.637723    27.548683    23.569162
H         0.963754    28.125307    22.718929
C        -0.150730    28.017284    24.653332
H        -0.445426    29.092962    24.630417
C        -0.514748    27.248608    25.837727
H        -0.995646    27.726620    26.655525
C         0.547079    23.116266    23.617020
O         0.478295    23.408329    22.491261
O         0.715760    23.944464    24.751968
C         0.448556    25.349901    24.760229
C        -0.384945    25.867233    25.863609
C        -1.089473    25.032539    26.877405
O        -1.769861    25.493090    27.769390
O        -0.713072    23.807753    26.930111
H        -0.218443    23.819630    26.089746
21
Frame 202
C         0.453958    21.731960    24.266323
H        -0.557371    21.654108    24.653341
H         1.286518    21.574316    24.908718
H         0.543352    21.073494    23.428829
C         0.719757    26.147076    23.591709
H         1.368895    25.811028    22.705900
C         0.632821    27.505161    23.572056
H         1.140475    28.150185    22.876984
C        -0.064118    28.069565    24.657104
H        -0.205432    29.080782    24.764732
C        -0.661632    27.234554    25.690598
H        -1.274078    27.664505    26.531467
C         0.608409    23.120964    23.714340
O         0.508057    23.427208    22.512390
O         0.614735    23.962908    24.813986
C         0.356085    25.314240    24.730267
C        -0.327691    25.823067    25.830227
C        -0.831802    24.988174    26.875252
O        -1.453228    25.541611    27.704727
O        -0.679165    23.721773    26.953815
H        -0.303654    23.732462    26.062033
21
Frame 203
C         0.446839    21.637945    24.322441
H        -0.429908    21.495180    24.920244
H         1.182134    21.467611    25.152197
H         0.517309    20.793320    23.594391
C         0.860324    26.163532    23.570019
H         1.451295    25.800777    22.777630
C         0.557398    27.589825    23.614391
H         0.878385    28.357750    22.819014
C        -0.229781    28.094252    24.694817
H        -0.254277    29.237480    24.692366
C        -0.640052    27.275694    25.742847
H        -1.104351    27.700806    26.644390
C         0.470292    22.961086    23.675369
O         0.499681    23.163385    22.402391
O         0.563909    23.923969    24.626913
C         0.329232    25.304588    24.596855
C        -0.358432    25.842724    25.739571
C        -0.825769    25.122583    26.969852
O        -1.304180    25.635498    27.964336
O        -0.557314    23.884418    26.949446
H        -0.316854    23.937014    26.016266
21
Frame 204
C         0.565369    21.564659    24.215834
H        -0.447050    21.518381    24.791166
H         1.534297    21.441975    24.742163
H         0.457996    20.927160    23.301872
C         0.694827    26.016748    23.517788
H         1.263124    25.534639    22.708014
C         0.430036    27.455475    23.503319
H         0.785840    27.965321    22.655136
C        -0.209498    28.157375    24.630539
H        -0.289699    29.234894    24.467167
C        -0.471909    27.414276    25.744644
H        -0.850530    27.892414    26.627665
C         0.473316    23.030693    23.725950
O         0.425862    23.150894    22.465782
O         0.399181    23.929207    24.648865
C         0.230947    25.262466    24.604090
C        -0.323522    25.933895    25.768679
C        -0.704519    25.169250    27.049232
O        -1.203480    25.760471    27.961912
O        -0.493921    23.795078    27.065830
H        -0.241971    23.674345    26.138716
21
Frame 205
C         0.711457    21.654472    24.155865
H         0.011098    21.297848    24.876190
H         1.646190    21.433361    24.647015
H         0.593375    20.996439    23.285797
C         0.364317    25.895039    23.394154
H         0.602886    25.550966    22.370430
C         0.350710    27.320717    23.407501
H         0.624641    27.912769    22.520449
C         0.027648    28.064949    24.585312
H        -0.116907    29.091484    24.708164
C        -0.374411    27.237312    25.662590
H        -0.729153    27.709328    26.631639
C         0.414103    22.984268    23.663671
O         0.323948    23.345621    22.519236
O         0.315881    23.887306    24.708834
C         0.205185    25.207279    24.620047
C        -0.256725    25.830368    25.737186
C        -0.655699    25.260727    27.106525
O        -1.134409    25.907780    28.045589
O        -0.470227    23.931061    27.196270
H        -0.162461    23.824142    26.283417
21
Frame 206
C         0.906641    21.443464    24.232569
H         0.160888    21.277124    24.911198
H         1.884104    21.583237    24.645262
H         0.909928    20.821981    23.382044
C         0.425034    25.984537    23.550827
H         0.643971    25.455364    22.676756
C         0.297036    27.403233    23.443638
H         0.342376    27.732248    22.396389
C        -0.088857    28.209091    24.558781
H        -0.254302    29.350418    24.706692
C        -0.253572    27.397964    25.740309
H        -0.545658    27.828485    26.662712
C         0.348173    22.889326    23.552645
O         0.093180    22.919493    22.379288
O         0.201395    23.847549    24.584583
C         0.153223    25.270407    24.631426
C        -0.278175    25.969038    25.759676
C        -0.616332    25.329636    27.109280
O        -0.980863    25.929060    28.084057
O        -0.393414    24.038052    27.213249
H        -0.117868    23.865271    26.320904
21
Frame 207
C         0.848620    21.673214    24.285889
H         0.239761    21.119991    25.003412
H         1.770269    21.741531    24.749245
H         0.869669    20.929060    23.582161
C         0.273016    25.936924    23.364676
H         0.542889    25.375183    22.404930
C         0.365653    27.386452    23.366844
H         0.579116    27.806519    22.409618
C        -0.067767    28.058233    24.529057
H        -0.150371    29.091206    24.518410
C        -0.339872    27.287016    25.711002
H        -0.590274    27.876932    26.597441
C         0.238794    22.925932    23.752220
O        -0.080334    23.029984    22.615532
O         0.312355    23.985752    24.695528
C         0.028740    25.224989    24.520113
C        -0.313008    25.866423    25.686150
C        -0.387966    25.310276    27.049189
O        -0.796841    25.901299    28.025795
O        -0.346590    23.991888    27.168303
H         0.033546    23.907093    26.305470
21
Frame 208
C         0.735304    21.686623    24.390308
H        -0.016831    21.620523    25.151772
H         1.728460    21.949186    24.807169
H         0.811303    20.963366    23.518120
C         0.400507    25.895973    23.291225
H         0.634112    25.399509    22.393860
C         0.168991    27.296984    23.149824
H         0.349094    27.852703    22.201847
C        -0.157313    28.060228    24.324244
H        -0.402717    29.126852    24.117010
C        -0.342740    27.360611    25.604277
H        -0.613506    27.978550    26.504204
C         0.270929    23.031956    23.774384
O        -0.379328    23.134537    22.725372
O         0.422892    23.877352    24.736197
C         0.248753    25.238026    24.618074
C        -0.253649    25.946239    25.732162
C        -0.427849    25.202753    27.126423
O        -0.619501    25.879642    28.126144
O        -0.287851    23.921003    27.145720
H         0.087846    23.891808    26.282160
21
Frame 209
C         0.585008    21.511068    24.219051
H         0.197900    21.066139    25.115234
H         1.688897    21.573477    24.399197
H         0.348729    20.735027    23.487286
C         0.508098    25.969963    23.296385
H         0.793309    25.398865    22.418968
C         0.132883    27.300615    23.214491
H         0.066193    27.888453    22.276371
C        -0.461902    27.998825    24.376144
H        -0.759184    29.045259    24.304113
C        -0.470716    27.378460    25.666695
H        -0.847490    28.060045    26.402283
C         0.103361    22.795677    23.880375
O        -0.572330    23.007141    22.831932
O         0.687138    23.844442    24.652805
C         0.423583    25.267418    24.586027
C        -0.088875    25.974730    25.840837
C        -0.256851    25.373791    27.118755
O        -0.511093    26.085804    28.062420
O        -0.281488    24.051033    27.066736
H         0.142556    23.996918    26.232147
21
Frame 210
C         0.556869    21.527636    24.227474
H         0.344946    21.445236    25.331842
H         1.558415    21.429508    23.954020
H         0.039554    20.879642    23.580120
C         0.363037    25.866055    23.243237
H         0.802483    25.279785    22.368912
C         0.128400    27.244318    23.148613
H         0.250032    27.834234    22.259411
C        -0.411266    27.921967    24.276171
H        -0.551378    28.990112    24.209682
C        -0.501927    27.282522    25.581968
H        -0.790940    27.913382    26.427507
C         0.216228    22.961071    23.853622
O        -0.718944    23.206299    23.113113
O         0.683002    23.874287    24.668501
C         0.237805    25.171772    24.556997
C        -0.181854    25.934940    25.732800
C        -0.203986    25.343971    27.062014
O        -0.338708    26.070768    27.953754
O        -0.109132    24.077423    27.272947
H         0.130808    23.945702    26.389807
21
Frame 211
C         0.661426    21.719435    24.275051
H         1.004252    21.644062    25.276907
H         1.573225    21.937895    23.711464
H         0.036059    20.830051    23.975649
C         0.427933    25.818804    23.311928
H         0.750510    25.119343    22.617142
C         0.010454    27.131973    23.002796
H         0.235242    27.511192    21.989983
C        -0.362060    27.900902    24.094496
H        -0.706230    28.942574    23.906233
C        -0.417551    27.357119    25.445826
H        -0.748754    28.077816    26.269991
C        -0.128150    22.946875    23.961533
O        -0.939107    23.111115    23.099491
O         0.505255    23.901655    24.676346
C         0.314296    25.232243    24.624166
C        -0.042069    25.984215    25.702679
C        -0.160722    25.329815    27.106791
O        -0.314126    25.926365    28.142263
O         0.149822    24.147787    27.235664
H         0.260614    23.914946    26.343254
21
Frame 212
C         0.569447    21.502373    24.183506
H         0.733661    21.242527    25.288483
H         1.483878    21.374424    23.525978
H        -0.053006    20.690956    23.784161
C         0.197537    25.842136    23.290300
H         0.429804    25.187464    22.431362
C        -0.072125    27.196049    23.087246
H        -0.011326    27.490643    22.053720
C        -0.266372    27.982481    24.232313
H        -0.360129    29.033081    24.259598
C        -0.351552    27.307596    25.520527
H        -0.516895    27.929428    26.338856
C        -0.054446    22.839315    23.900555
O        -1.049530    22.940182    23.332645
O         0.528405    23.886755    24.606529
C         0.218833    25.204420    24.515507
C         0.025485    25.979805    25.668289
C        -0.015739    25.509968    27.064365
O        -0.468593    26.162138    27.976921
O         0.449378    24.202166    27.286959
H         0.406618    24.055447    26.372574
21
Frame 213
C         0.560503    21.388515    24.188917
H         0.695063    21.095573    25.283697
H         1.544193    21.553684    23.767506
H        -0.127815    20.778769    23.568329
C         0.097054    25.767916    23.245173
H         0.325704    25.190105    22.340664
C        -0.209015    27.143744    23.100700
H        -0.340207    27.598297    22.094469
C        -0.246041    28.016411    24.248608
H        -0.306688    29.157196    24.249086
C        -0.131296    27.358515    25.482388
H        -0.256986    27.975323    26.423761
C        -0.133571    22.781933    24.019169
O        -1.145076    22.971272    23.441370
O         0.510287    23.830341    24.523193
C         0.117634    25.172588    24.429901
C         0.040417    25.976801    25.589249
C        -0.002953    25.486351    27.095909
O        -0.491022    26.189140    27.979000
O         0.691886    24.383238    27.297924
H         0.776731    23.987486    26.463087
21
Frame 214
C         0.487893    21.717329    24.302786
H         0.463905    21.334759    25.245224
H         1.480816    21.893539    23.930494
H         0.102762    20.949232    23.638592
C         0.104079    25.605663    23.242971
H         0.120139    25.030735    22.331755
C        -0.173341    27.007563    23.007069
H        -0.279922    27.412548    22.004593
C        -0.328377    27.990124    24.061720
H        -0.650506    28.955410    23.789045
C        -0.271657    27.453281    25.342094
H        -0.507774    28.127254    26.193830
C        -0.271683    22.886068    24.093864
O        -1.306866    22.944019    23.460817
O         0.344272    23.881083    24.693771
C         0.209208    25.177608    24.557934
C         0.183265    26.069874    25.596649
C         0.187889    25.518942    27.006456
O        -0.352700    25.925674    28.032759
O         0.904876    24.346714    27.239065
H         0.795877    24.046309    26.367207
21
Frame 215
C         0.338111    21.511547    24.425766
H         0.242698    21.247486    25.474590
H         1.379104    21.548393    24.110256
H        -0.173519    20.918247    23.743893
C         0.012099    25.670662    23.154408
H         0.129590    24.936914    22.342131
C        -0.225353    27.096252    22.952011
H        -0.344922    27.486217    21.932707
C        -0.331939    27.869793    24.093454
H        -0.598873    28.910559    23.961998
C        -0.277507    27.313263    25.333912
H        -0.423681    27.918043    26.166380
C        -0.228535    22.909376    24.166847
O        -1.315665    23.063297    23.566223
O         0.449887    23.865860    24.657915
C         0.053312    25.164740    24.433649
C        -0.009667    25.940895    25.630434
C         0.220912    25.445433    27.060059
O        -0.131449    26.115381    27.992334
O         1.045253    24.472794    27.147673
H         0.898988    24.130552    26.292648
21
Frame 216
C         0.152014    21.350538    24.577486
H         0.059483    21.131804    25.688683
H         1.163367    21.105871    24.226185
H        -0.616303    20.666883    24.122623
C         0.041233    25.756227    23.180351
H         0.154712    25.213867    22.250746
C        -0.374369    27.093288    23.031792
H        -0.660518    27.417643    22.014111
C        -0.547157    27.895315    24.138924
H        -0.923626    28.975628    24.063728
C        -0.259183    27.393307    25.402525
H        -0.421939    28.025517    26.398039
C        -0.300563    22.710209    24.104786
O        -1.415025    22.936632    23.579090
O         0.589742    23.801729    24.501593
C         0.218232    25.134897    24.497620
C         0.121159    26.021414    25.652264
C         0.399679    25.621595    26.973322
O         0.015619    26.302526    27.902985
O         1.028954    24.452438    27.089993
H         0.831842    24.286911    26.195297
21
Frame 217
C         0.165184    21.596928    24.724463
H         0.416573    21.575047    25.806044
H         1.080354    21.359299    24.048000
H        -0.634009    20.831678    24.391462
C        -0.165627    25.677328    23.050711
H        -0.204406    24.933615    22.251534
C        -0.517531    26.999336    22.899559
H        -0.813066    27.444473    21.965889
C        -0.593881    27.837986    24.008696
H        -0.938857    28.791590    23.916794
C        -0.277018    27.393759    25.359074
H        -0.340076    27.948414    26.261562
C        -0.403506    22.935455    24.258484
O        -1.356215    22.970757    23.521955
O         0.477774    23.835522    24.740566
C         0.217172    25.200785    24.410440
C         0.194292    25.991150    25.576221
C         0.544752    25.502907    26.944298
O         0.350022    26.229721    27.892536
O         0.974893    24.334461    27.165545
H         0.836384    23.997801    26.295931
21
Frame 218
C         0.193180    21.596493    24.859127
H         0.333288    21.790344    25.983095
H         1.139482    21.270428    24.370964
H        -0.631147    20.907059    24.714754
C        -0.315569    25.597675    23.140133
H        -0.385283    24.860413    22.332817
C        -0.606847    26.965660    22.905041
H        -0.804028    27.328236    21.886871
C        -0.545402    27.819578    24.039347
H        -0.713577    28.888416    23.690071
C        -0.105580    27.444881    25.351112
H         0.064216    28.193855    26.106010
C        -0.347694    22.817629    24.161327
O        -1.429913    22.909027    23.627291
O         0.490008    23.874037    24.566292
C         0.022719    25.103207    24.423080
C         0.050446    26.022013    25.605690
C         0.475085    25.607323    26.964771
O         0.682905    26.310127    27.906139
O         0.937865    24.360773    27.040878
H         0.772104    24.237968    26.116226
21
Frame 219
C         0.224180    21.333302    24.868286
H         0.301338    21.303825    25.971651
H         1.186790    21.189713    24.431055
H        -0.377723    20.427874    24.606937
C        -0.400904    25.752600    23.163307
H        -0.428614    25.104380    22.312927
C        -0.616533    27.171984    22.951965
H        -0.900426    27.588074    21.951635
C        -0.631418    27.999525    24.167847
H        -0.879406    29.057697    24.090929
C        -0.082148    27.458797    25.297401
H         0.098092    28.202747    26.186405
C        -0.495324    22.626534    24.379910
O        -1.494473    22.622112    23.713821
O         0.306553    23.784744    24.616096
C         0.098122    25.200979    24.390833
C         0.260770    26.106304    25.447399
C         0.790384    25.635471    26.836355
O         0.737416    26.515553    27.657335
O         0.886765    24.335510    27.079069
H         0.764000    24.008329    26.188786
21
Frame 220
C         0.245856    21.545660    24.788383
H         0.072522    21.673439    25.854095
H         1.357060    21.592777    24.511276
H        -0.338038    20.703905    24.360275
C        -0.619386    25.507587    23.240814
H        -0.941131    24.766697    22.508791
C        -0.822536    26.887407    22.984716
H        -1.180023    27.281834    22.032143
C        -0.423111    27.872749    23.950905
H        -0.367429    28.919933    23.872841
C         0.022474    27.383745    25.208809
H         0.290032    28.095364    25.863766
C        -0.415876    22.769459    24.255878
O        -1.563846    22.716969    23.801785
O         0.217843    23.832588    24.647160
C         0.006819    25.176205    24.463058
C         0.122895    26.052464    25.543446
C         0.688476    25.747707    26.877785
O         1.061244    26.514870    27.784412
O         0.985570    24.431355    27.013596
H         0.740968    24.154060    26.127855
